28
Jong-Fe4S4
Fe      -1.031015   -1.152169    0.814605
Fe      -1.132210    0.595040   -1.328772
Fe       1.568058   -0.814172   -0.804528
Fe       0.899122    1.256388    0.908498
S       -0.582157   -1.722524   -1.417313
S        1.267198   -0.990015    1.544483
S       -1.511300    1.158213    0.951623
S        1.131799    1.417121   -1.448114
S       -2.572826   -2.495713    1.903386
C       -2.832379   -1.530577    3.455111
H       -1.993831   -1.687756    4.151510
H       -2.911758   -0.456895    3.227158
H       -3.765260   -1.874009    3.931724
S        2.078615    2.848818    2.107431
C        1.779841    4.347778    1.072352
H        0.764549    4.739158    1.242527
H        2.514631    5.120505    1.352290
H        1.894806    4.103942    0.005468
S        3.552019   -1.724110   -1.579039
C        3.624977   -3.278007   -0.585575
H        2.919154   -4.024324   -0.982730
H        4.648177   -3.684407   -0.643314
H        3.372889   -3.070994    0.465413
S       -2.804831    1.365983   -2.735082
C       -4.310158    1.007469   -1.729889
H       -5.160395    1.558396   -2.164508
H       -4.536020   -0.070002   -1.741779
H       -4.159694    1.329812   -0.688616
