44

Fe   -3.004847205   0.000000000   0.000000000
Fe    3.004847205   0.000000000   0.000000000
C     0.000000000   3.409724742   0.000000000
C    -1.181171332   2.688097691   0.000000000
C     0.000000000   0.740751552   0.000000000
C     1.181171332   2.688097691   0.000000000
C     0.000000000  -0.740751552   0.000000000
C    -1.181171332  -2.688097691   0.000000000
H    -2.146818649  -3.183002979   0.000000000
C     0.000000000  -3.409724742   0.000000000
C     1.181171332  -2.688097691   0.000000000
H     0.000000000   4.493447820   0.000000000
H    -2.146818649   3.183002979   0.000000000
H     2.146818649   3.183002979   0.000000000
H     0.000000000  -4.493447820   0.000000000
H     2.146818649  -3.183002979   0.000000000
N     1.181855833  -1.349331346   0.000000000
N     1.181855833   1.349331346   0.000000000
N    -1.181855833   1.349331346   0.000000000
N    -1.181855833  -1.349331346   0.000000000
O    -3.144689205   0.000000000   2.173794421
H    -3.215014949   0.767134520   2.755998720
H    -3.215014949  -0.767134520   2.755998720
O    -4.456206090  -1.575286642   0.000000000
H    -4.991908144  -1.818727923  -0.767266958
H    -4.991908144  -1.818727923   0.767266958
O    -4.456206090   1.575286642   0.000000000
H    -4.991908144   1.818727923  -0.767266958
H    -4.991908144   1.818727923   0.767266958
O     4.456206090  -1.575286642   0.000000000
H     4.991908144  -1.818727923  -0.767266958
H     4.991908144  -1.818727923   0.767266958
O     4.456206090   1.575286642   0.000000000
H     4.991908144   1.818727923  -0.767266958
H     4.991908144   1.818727923   0.767266958
O     3.144689205   0.000000000   2.173794421
H     3.215014949  -0.767134520   2.755998720
H     3.215014949   0.767134520   2.755998720
O    -3.144689205   0.000000000  -2.173794421
H    -3.215014949   0.767134520  -2.755998720
H    -3.215014949  -0.767134520  -2.755998720
O     3.144689205   0.000000000  -2.173794421
H     3.215014949  -0.767134520  -2.755998720
H     3.215014949   0.767134520  -2.755998720
