[Molden Format]
made by pyscf v[2.9.0]
[Atoms] (AU)
H   1   1    -5.23879324882549    -2.08616882439197     0.00000000000000
N   2   7    -5.43454052943856    -0.10999528853256     0.00000000000000
N   3   7    -3.32931381708035     0.96100699256469     0.00000000000000
C   4   6    -1.14187645939906    -0.55479146482818     0.00000000000000
H   5   1    -1.33192432602045    -2.61430003305479     0.00000000000000
C   6   6     1.14187645939906     0.55479146482818     0.00000000000000
H   7   1     1.33192432602045     2.61430003305479     0.00000000000000
N   8   7     3.32931381708035    -0.96100699256469     0.00000000000000
N   9   7     5.43454052943856     0.10999528853256     0.00000000000000
H   10   1     5.23879324882549     2.08616882439197     0.00000000000000
[GTO]
1 0
 s    3 1.00
             18.731137    0.03349459952309
             2.8253937    0.23472694665786
             0.6401217    0.81375731841339
 s    1 1.00
             0.1612778                   1

2 0
 s    6 1.00
              4173.511  0.0018347994430301
              627.4579   0.013994995751693
              142.9021   0.068586979179805
              40.23433    0.23224092950117
              12.82021    0.46906985760962
              4.390437    0.36045489058067
 s    3 1.00
             11.626358   -0.11496102288211
               2.71628   -0.16911803366165
              0.772218     1.1458522280731
 s    1 1.00
             0.2120313                   1
 p    3 1.00
             11.626358   0.067580023248036
               2.71628    0.32390711142648
              0.772218    0.74089525487354
 p    1 1.00
             0.2120313                   1

3 0
 s    6 1.00
              4173.511  0.0018347994430301
              627.4579   0.013994995751693
              142.9021   0.068586979179805
              40.23433    0.23224092950117
              12.82021    0.46906985760962
              4.390437    0.36045489058067
 s    3 1.00
             11.626358   -0.11496102288211
               2.71628   -0.16911803366165
              0.772218     1.1458522280731
 s    1 1.00
             0.2120313                   1
 p    3 1.00
             11.626358   0.067580023248036
               2.71628    0.32390711142648
              0.772218    0.74089525487354
 p    1 1.00
             0.2120313                   1

4 0
 s    6 1.00
             3047.5249  0.0018347001629433
             457.36951    0.01403730124668
             103.94869   0.068842606114048
             29.210155    0.23218442062076
              9.286663    0.46794134155879
              3.163927    0.36231203217765
 s    3 1.00
             7.8682724   -0.11933240861517
             1.8812885   -0.16085421161283
             0.5442493     1.1434564825515
 s    1 1.00
             0.1687144                   1
 p    3 1.00
             7.8682724   0.068999095584993
             1.8812885    0.31642397975315
             0.5442493    0.74430825237435
 p    1 1.00
             0.1687144                   1

5 0
 s    3 1.00
             18.731137    0.03349459952309
             2.8253937    0.23472694665786
             0.6401217    0.81375731841339
 s    1 1.00
             0.1612778                   1

6 0
 s    6 1.00
             3047.5249  0.0018347001629433
             457.36951    0.01403730124668
             103.94869   0.068842606114048
             29.210155    0.23218442062076
              9.286663    0.46794134155879
              3.163927    0.36231203217765
 s    3 1.00
             7.8682724   -0.11933240861517
             1.8812885   -0.16085421161283
             0.5442493     1.1434564825515
 s    1 1.00
             0.1687144                   1
 p    3 1.00
             7.8682724   0.068999095584993
             1.8812885    0.31642397975315
             0.5442493    0.74430825237435
 p    1 1.00
             0.1687144                   1

7 0
 s    3 1.00
             18.731137    0.03349459952309
             2.8253937    0.23472694665786
             0.6401217    0.81375731841339
 s    1 1.00
             0.1612778                   1

8 0
 s    6 1.00
              4173.511  0.0018347994430301
              627.4579   0.013994995751693
              142.9021   0.068586979179805
              40.23433    0.23224092950117
              12.82021    0.46906985760962
              4.390437    0.36045489058067
 s    3 1.00
             11.626358   -0.11496102288211
               2.71628   -0.16911803366165
              0.772218     1.1458522280731
 s    1 1.00
             0.2120313                   1
 p    3 1.00
             11.626358   0.067580023248036
               2.71628    0.32390711142648
              0.772218    0.74089525487354
 p    1 1.00
             0.2120313                   1

9 0
 s    6 1.00
              4173.511  0.0018347994430301
              627.4579   0.013994995751693
              142.9021   0.068586979179805
              40.23433    0.23224092950117
              12.82021    0.46906985760962
              4.390437    0.36045489058067
 s    3 1.00
             11.626358   -0.11496102288211
               2.71628   -0.16911803366165
              0.772218     1.1458522280731
 s    1 1.00
             0.2120313                   1
 p    3 1.00
             11.626358   0.067580023248036
               2.71628    0.32390711142648
              0.772218    0.74089525487354
 p    1 1.00
             0.2120313                   1

10 0
 s    3 1.00
             18.731137    0.03349459952309
             2.8253937    0.23472694665786
             0.6401217    0.81375731841339
 s    1 1.00
             0.1612778                   1

[5d]
[7f]
[9g]

[MO]
 Sym= A
 Ene=     -15.6824898
 Spin= Alpha
 Occup=    2.00000
   1    -6.4299109124919e-05
   2    1.1743752889553e-05
   3    -2.5829335142577e-05
   4    -9.3069091490611e-05
   5    0.00081130554824903
   6    -3.3213100889761e-05
   7    2.4223286539148e-05
   8    -7.5695791372374e-06
   9    0.00037532631662969
  10    0.00010904402886117
  11    -4.4879710031992e-06
  12    6.7299428281086e-05
  13    2.2415301538678e-05
  14    -0.00071877174432191
  15    -5.4325667673983e-06
  16    -0.00010978342457519
  17    -1.1859236086092e-05
  18    0.00042398163134757
  19    0.00019778216550881
  20    -9.0641236714942e-06
  21    2.6666809641109e-05
  22    -0.00030890484053631
  23    0.0025943586726738
  24    -0.00017514908308174
  25    2.8833306049085e-05
  26    1.1746164299653e-06
  27     0.001194027185388
  28    0.0010945726298482
  29    -6.7873197542314e-06
  30    -6.4794667683281e-05
  31    0.00046995423562923
  32    0.00011353941072309
  33    -0.00073406175243253
  34    -0.00073659627823021
  35    -0.00055490912188236
  36    0.00014072080042727
  37    3.523911838946e-05
  38    0.0030846680263576
  39    0.0010067661228184
  40    2.2921970774888e-05
  41    -5.1158784314477e-05
  42    -0.00046714791087884
  43      0.22769600997813
  44    0.0070279108445639
  45    0.0037713271953111
  46    -0.00033595497845797
  47    -0.0014513327748376
  48    0.00010921961863816
  49    0.0015446365170031
  50    -0.0017417665512939
  51    7.6174673001973e-05
  52       0.9706310924227
  53     0.019305929884486
  54    -0.013878655769682
  55    -0.0047814942086672
  56    0.0017996174843098
  57    9.7124182277744e-05
  58    0.0018489351221224
  59    -0.00030524209479192
  60    6.9459367052812e-05
  61    0.00030540186201957
  62    0.0032565343245079
 Sym= A
 Ene=    -15.67563775
 Spin= Alpha
 Occup=    2.00000
   1    5.4943310535159e-06
   2    -6.3260116422478e-05
   3    4.0157925940613e-05
   4    -3.1013888529727e-05
   5    0.0010463725662916
   6    9.2592002225714e-05
   7    7.6634049281833e-07
   8    8.2910166486913e-06
   9    0.0004165269952473
  10    0.00025661639299092
  11    4.9354963451344e-06
  12    0.00013466937452607
  13    9.4764937856153e-05
  14    -0.0016214684333258
  15    -0.00020724471372997
  16    1.6512637601974e-05
  17     1.29703295875e-05
  18    0.00082860539093609
  19    0.00080587085837084
  20    9.8888914173216e-06
  21    -3.7164878992684e-05
  22    0.00028805072054718
  23    -0.0011934097337789
  24    0.00020892043452568
  25    -0.00016380640429166
  26    -1.3157291272021e-06
  27    -0.0020308800649115
  28    0.0011253199351051
  29    7.3895470359351e-06
  30    0.00023872127007467
  31    0.00032819773513685
  32    -9.2427497946327e-05
  33    2.4035589939202e-05
  34    0.0090199845755544
  35    0.00037904856587745
  36    -4.2535551182852e-05
  37    -3.8614816251568e-05
  38    0.0042750569148748
  39    -0.0038311536396929
  40    -2.4894408749037e-05
  41    -0.00029548380486558
  42    8.6690213542705e-05
  43      0.97059477540973
  44      0.02117357058346
  45    -0.022878972190177
  46    0.00057525108683478
  47    0.0050877742187531
  48    -0.00011944890071029
  49    7.1257258224406e-05
  50    -0.0046466136606162
  51    -8.4384269441691e-05
  52     -0.22996662202809
  53    -0.0031285280140201
  54     0.013624038976781
  55    0.0030181098021768
  56    -0.00099523878567001
  57    -0.00010591000050174
  58    -0.0022967042640444
  59    -0.00060190607646145
  60    -7.4679201015165e-05
  61    -0.00059021715127896
  62    -0.0023528045923195
 Sym= A
 Ene=    -15.65944498
 Spin= Alpha
 Occup=    2.00000
   1    0.00034919826558752
   2    0.00048818208226033
   3    -0.023156016086795
   4    0.00073643137073505
   5    -0.0059881840431046
   6    9.3865028778221e-05
   7    0.00029446379351306
   8    -6.2650926642729e-07
   9    -0.0029789173915065
  10    -7.3547625334992e-05
  11    -2.819261033043e-07
  12     -0.99585150805105
  13    -0.024124572646111
  14     0.018133790367935
  15    0.00032047495640573
  16    0.0024999254653628
  17    -1.3190308220536e-06
  18    0.00020219751893949
  19    -0.0064602666780905
  20    -8.9258142101629e-07
  21    -4.155117413276e-05
  22    0.00053137065586436
  23    -0.0077724534410143
  24    -2.7440741003113e-05
  25    0.0002575912483323
  26    -1.0271703092737e-06
  27    0.0046689892368447
  28    -0.0032236746006759
  29    -8.1724896547035e-07
  30    9.7118660176452e-05
  31    -0.00040808171117362
  32    -3.3650583334711e-05
  33    -5.4195619031168e-05
  34    0.00066441728873062
  35    -4.6081991887372e-05
  36    -0.00014761886076328
  37    -4.588480464171e-07
  38    -0.0015987388847703
  39    0.0014374159584987
  40    -1.682292955847e-07
  41    -0.00021896264593496
  42    -0.00063340678691036
  43    0.00011488443379589
  44    -8.1108191434267e-05
  45    0.0017345358505891
  46    -0.00018500574793159
  47    -5.5080163537755e-05
  48    -2.461725684471e-07
  49    0.00090905934090951
  50    0.00076989109479982
  51    -1.4985865703437e-07
  52    4.1799846619728e-05
  53    4.8836131661214e-05
  54    -0.0012388887328496
  55    7.6993669004628e-05
  56    2.7194072429473e-05
  57    -2.0300322160128e-07
  58    0.00048733994080377
  59    0.00027688863987883
  60    -8.0508608874722e-08
  61    2.526456442278e-05
  62    9.6409770239243e-05
 Sym= A
 Ene=    -15.63816714
 Spin= Alpha
 Occup=    2.00000
   1    0.00029636097970058
   2    0.0031319455845155
   3      0.99651472150181
   4      0.02141559832014
   5    -0.014025368227837
   6    0.0029892267455445
   7    -0.0013803955398124
   8    2.1173999472026e-06
   9    -0.0039038849977499
  10    0.0007113795641535
  11    5.0022184088556e-07
  12     -0.02329547855636
  13    -0.00066786757122304
  14    0.0063227583344514
  15    0.00093429225008942
  16      0.00181311173738
  17    3.8202453557933e-06
  18    -0.001599321774678
  19    -0.00010017884768805
  20    2.8889159905735e-06
  21    -2.1510392820039e-05
  22    -0.00039194845477198
  23    -0.0015140627016353
  24    0.00041686190387245
  25    -0.00027069151015274
  26    3.1189834687283e-06
  27    -0.0022366162602651
  28    -0.0016195180849704
  29    2.5613418224179e-06
  30    0.00017926714857895
  31    -0.00052739905803062
  32    3.3277730984286e-05
  33    -0.00032620438268866
  34    0.0025640094202454
  35    7.0166886364798e-05
  36    0.00019895681371915
  37    1.417580038467e-06
  38    -0.0013709751915255
  39    -0.0005988830556529
  40    4.2924929386786e-07
  41    2.832470805581e-05
  42    0.00037689464262289
  43    -1.8858695585828e-05
  44    -1.7898294049914e-05
  45    -0.00042222233941147
  46    0.0001587092586044
  47    1.8381286890951e-05
  48    9.7144158806744e-07
  49    -0.00022183458568449
  50    -0.00015047146636405
  51    6.2041394260832e-07
  52    3.6811081854852e-06
  53    -8.8079700726171e-05
  54    0.00054476425519889
  55    -6.4665611015193e-05
  56    -3.4798593832286e-05
  57    8.241383306183e-07
  58    -0.00036277021627654
  59    -5.6656087760624e-05
  60    4.6055948054793e-07
  61    -5.0303801824112e-05
  62    5.3520227714528e-05
 Sym= A
 Ene=    -11.31426965
 Spin= Alpha
 Occup=    2.00000
   1    -8.2117969603374e-05
   2    -0.00024777443271832
   3    0.00021274936893324
   4    -0.00067438501257517
   5    0.0001990162898491
   6    -2.3062271136326e-05
   7    -9.5184349718909e-05
   8    4.8608424168011e-07
   9    0.00031664546343149
  10    -0.00035140435406969
  11    1.4948617319189e-07
  12    -0.00025421278854035
  13    -1.3857602355576e-05
  14    0.0019339092598547
  15    0.00016250596998626
  16    0.00041626169888405
  17    1.1437541697449e-06
  18    0.00077520225583849
  19    0.00053231926936518
  20    1.0104065610304e-06
  21      0.99310781069659
  22     0.024357714263774
  23    -0.015137023863057
  24    0.00037570536809171
  25    0.00028136413557996
  26    2.2126883621804e-06
  27    -0.0025283991543671
  28    -0.0012334126308717
  29    -4.7215737422924e-08
  30    -7.2643461070479e-05
  31    0.0024816890759968
  32     0.077275872672564
  33    0.00092860356422048
  34    0.0059136161677544
  35    0.00034853199532031
  36    0.00018527644267929
  37    5.2229820057245e-07
  38    -0.0026573238745295
  39    -0.0014591339183065
  40    4.8346808396868e-07
  41    -0.00012859122323992
  42    0.00037977765463957
  43    -3.5350183654909e-06
  44    1.4756386458203e-05
  45    -0.00094643096868617
  46    0.00011308554683502
  47    1.8992745080048e-05
  48    5.4748852898394e-07
  49    -0.00045609800690216
  50    -0.00038641141763893
  51    3.478094910662e-07
  52    -1.1828080068027e-05
  53    -0.0001196343268551
  54    0.00098021800523093
  55    -5.6211625858947e-05
  56    -1.6639769094201e-05
  57    5.0169087952342e-07
  58    -0.00054717304495921
  59    -0.00011783667964663
  60    2.449888152183e-07
  61    -4.827272023011e-05
  62    0.00010764422100121
 Sym= A
 Ene=    -11.30449634
 Spin= Alpha
 Occup=    2.00000
   1    3.7230957750975e-05
   2    -7.0491520036961e-05
   3    0.0001516395159528
   4    -0.00021634975420087
   5    -0.0011401541264931
   6    -2.0402040860855e-05
   7    -8.4564950654002e-05
   8    4.8034038254294e-07
   9    -0.00040190710290627
  10    -0.0001873872155639
  11    2.3922431616743e-07
  12    -5.9390906771192e-05
  13    4.8017488712215e-05
  14    0.0013307657541494
  15    0.00016241773482197
  16    0.00032014375003495
  17    8.4268509833356e-07
  18    -0.00025181039795329
  19    -8.2830512564291e-05
  20     6.17341755557e-07
  21     0.077791348373366
  22    0.0028918078484617
  23    -0.0085115486025263
  24    0.00041176089877605
  25    0.00015137362238447
  26    7.0019022757468e-07
  27    -0.0031689653885386
  28    -0.001669851349791
  29    3.6141123442556e-07
  30    0.00019817251863691
  31    0.00012943511853438
  32     -0.99308030992154
  33    -0.024915409199831
  34     0.016196058163335
  35    0.00015411351530187
  36    0.00070543290244773
  37    -5.5978471240479e-07
  38    -0.0029195788729709
  39    -0.0016996864117594
  40    2.9126310224933e-07
  41    0.00019115247315183
  42    -0.0021749585374907
  43    0.00017549605866315
  44    8.9097714828004e-05
  45    -0.0015018721252345
  46    -1.5102024763943e-05
  47    -6.5470861183012e-06
  48    -9.3777599381337e-07
  49    0.00066258943859019
  50    0.00034565298787051
  51    -7.1171598579526e-07
  52    -5.0405154467438e-06
  53    0.00023959090882726
  54    -0.00076564677032173
  55    -1.3144866788929e-05
  56    1.9954765514497e-05
  57    -9.4694488059243e-07
  58    0.00027097175429136
  59    -0.00035239021119153
  60    -7.7034225444292e-07
  61    0.00010693487931002
  62    0.0004375375506136
 Sym= A
 Ene=    -1.424102096
 Spin= Alpha
 Occup=    2.00000
   1    -0.0012911672827331
   2    -0.0013293756984703
   3     0.002820806905933
   4    -0.0064607155969268
   5    0.0098101775740854
   6    -0.0047924364315177
   7    -0.00069617033131768
   8    1.6959860436608e-05
   9    0.0033706559471564
  10    0.0034927695669477
  11    1.0947246120653e-05
  12    0.0075078400750157
  13    -0.015692928497872
  14    -0.026427545630195
  15    -0.0028721667216166
  16    0.0033496687081572
  17    2.2177965326794e-05
  18    0.0096192156717646
  19    0.0085102752884367
  20    1.6935541342739e-05
  21     0.013997435962403
  22    -0.027679226856524
  23    -0.033506422636334
  24    -0.013894004900549
  25    -0.0063479946606396
  26    -1.4843440687862e-05
  27     -0.02178894125587
  28    0.0069151430974681
  29    1.6973212071665e-05
  30    -0.0044150509037912
  31    0.0031090830365544
  32     0.052372163230474
  33     -0.11079450792669
  34      0.04375548134172
  35    -0.059447060379379
  36     0.035058687123938
  37    -0.00012044992471144
  38     0.026529587951082
  39    -0.046611349296223
  40    -8.2915096294845e-05
  41    -0.018071164628093
  42    0.0058682158748503
  43      0.15952064605653
  44     -0.34259343918333
  45     -0.31640062179854
  46    -0.099675659794841
  47     -0.12447380316115
  48    -0.00036996276585248
  49     0.027692781309025
  50    -0.058628965764607
  51    -0.00024581130865609
  52      0.13432083229977
  53     -0.29792094190322
  54     -0.19605823206935
  55      0.17742462493568
  56     0.025174351580241
  57    -0.00044080437660281
  58     0.037402677526395
  59    -0.013130385173943
  60    -0.00031260956794652
  61    -0.063549082675253
  62    0.0093181355547903
 Sym= A
 Ene=    -1.312831534
 Spin= Alpha
 Occup=    2.00000
   1    -0.032044636298122
   2    -0.019055420565571
   3     0.061702104333549
   4     -0.13578879585007
   5     0.002585154728679
   6     -0.16361685922505
   7    -0.023202654311172
   8    -0.0001272830286036
   9    -0.034294872693635
  10     0.012841871207708
  11    -5.1285686358825e-05
  12      0.18842944156565
  13     -0.40274485145997
  14     -0.45072827483284
  15    0.0087285157642997
  16     0.038126136877187
  17    -0.00027031110322502
  18    -0.044819880540022
  19    0.0068624603558188
  20    -0.00019326788312642
  21     0.090589187976642
  22     -0.18476586188212
  23    -0.019180044046107
  24     0.071876475624731
  25    -0.041113614728763
  26    -0.00021203649449047
  27    -0.030487251408793
  28     0.049463151837749
  29    -0.00017848185360598
  30    -0.052383807006557
  31    -0.015791490209972
  32      0.02270663960674
  33    -0.044573363331784
  34    -0.029363050943938
  35     0.038702680680247
  36    -0.0034506468889254
  37    -5.8986315694884e-05
  38     0.015333131881738
  39    -0.014625503743759
  40    -9.1729410121756e-06
  41    -0.016096354652341
  42    -0.0074568974794424
  43    -0.011710134949802
  44     0.026624489908112
  45     0.011879596499067
  46     0.010478204297474
  47    0.0072118058262366
  48    5.2650794886932e-05
  49    -0.010608050280258
  50    -0.0044539259115508
  51    4.2025155488446e-05
  52    -0.011368463713705
  53     0.024827233204154
  54     0.028139279160374
  55    -0.013544707514355
  56    -0.00013371861043474
  57    5.9017458504019e-05
  58    -0.0068359475347949
  59    2.0280774233324e-05
  60    4.9656516568066e-05
  61    0.0062558814468264
  62    -0.00048729506098082
 Sym= A
 Ene=     -1.08687486
 Spin= Alpha
 Occup=    2.00000
   1     -0.01300003508119
   2    -0.0079211519338701
   3     0.031919873018948
   4     -0.07075153719894
   5     -0.02140153962407
   6    -0.090486592867914
   7     -0.02468263346439
   8    1.506317933921e-05
   9    -0.036879564621817
  10    0.0097920422237261
  11    2.9294344280547e-05
  12     0.058169109420388
  13     -0.13303167026569
  14     -0.15019562173223
  15       0.0966085730269
  16    -0.041587388302101
  17    -4.7339436102405e-05
  18    0.0093467048047663
  19    -0.039746129857109
  20    -2.2171972794306e-05
  21     -0.11827476021401
  22      0.25423177203262
  23       0.1730601802448
  24      0.15602093504244
  25     0.051581095008579
  26    -0.0002778520700895
  27    0.00094707752386572
  28    -0.012973327099661
  29    -4.2450739811264e-05
  30     0.046489561392852
  31    -0.024669705525055
  32     -0.16063557029703
  33      0.33933168841858
  34      0.24562560560154
  35    -0.082667689435683
  36    -0.081562635938977
  37    -0.00091140014144165
  38    0.00052840126598491
  39    0.0088153114682839
  40    -0.00055801777754742
  41       0.0722501236884
  42    -0.015764982286921
  43    0.0059438882289442
  44    -0.020969889055947
  45    -0.019024104456453
  46      -0.1839574157999
  47     0.047236429450808
  48    -0.0025383915418012
  49    -0.040185346841976
  50     0.039154652470851
  51    -0.0017768175944395
  52     0.041847572462513
  53    -0.095074712363585
  54    -0.069624055401242
  55       0.1040513101449
  56     0.020996080266806
  57    -0.0022630825136324
  58       0.0577029783014
  59    -0.014846432695823
  60    -0.0015831035870013
  61    -0.021001997148171
  62    3.810800610379e-07
 Sym= A
 Ene=   -0.8713703113
 Spin= Alpha
 Occup=    2.00000
   1     0.033150649560517
   2     0.006750146612666
   3     0.028864334412545
   4    -0.071249224431296
   5    -0.015371930561301
   6    -0.093632005902717
   7     -0.11183358697627
   8    -0.00028760163619256
   9    -0.038091727301098
  10    -0.020385399303913
  11    -0.00017385145275736
  12     0.043071515843679
  13     -0.10822099194566
  14     -0.12886733417131
  15      0.20620757647342
  16     -0.15867262666672
  17    -0.00045996631244564
  18     0.066002200500632
  19     -0.09926137112797
  20    -0.00034336449061373
  21     -0.12028589007937
  22       0.2635670603428
  23      0.17347557124764
  24     -0.08790167260223
  25    -0.025119921083842
  26    -2.8217321110318e-05
  27    -0.067509853349516
  28    -0.058406978392137
  29    -0.0002746884085529
  30      0.10872245256001
  31    0.0030804460682222
  32     0.086263020221513
  33     -0.18582532089814
  34     -0.10459045231973
  35     -0.19646744901765
  36    -0.057562261174519
  37    0.0011178279931285
  38    -0.077208356818805
  39    -0.070425345412091
  40    0.00073311192428766
  41     -0.11172400367244
  42    -0.028892801259152
  43     0.003242389572945
  44    0.0049049487251594
  45    -0.020088713522046
  46      0.21252092002154
  47      -0.1318628427647
  48    0.0035360525752681
  49     0.073347841100322
  50    -0.082460434038545
  51     0.002488226786905
  52    -0.036404166336843
  53     0.087861492331985
  54     0.071344372024395
  55     -0.07779761877956
  56    -0.070313058802007
  57    0.0031833091940151
  58    -0.048299001210834
  59    -0.0062299636656502
  60    0.0022353201573922
  61    -0.0067991969956237
  62    -0.0052385147269636
 Sym= A
 Ene=    -0.764635119
 Spin= Alpha
 Occup=    2.00000
   1      0.26122024940239
   2      0.15330676457176
   3    -0.073662712791643
   4      0.14154983459968
   5      0.24629684477823
   6    -0.0072392966095922
   7     -0.30351521505735
   8    0.00050599675855693
   9      0.10541791549807
  10     -0.13575948913944
  11    0.00023732419530161
  12     0.030761878260272
  13    -0.065720489525907
  14     -0.15452618485237
  15    -0.022448884767051
  16      0.16129093839934
  17    0.0010292764544637
  18     0.048593094965287
  19      0.20097959696483
  20    0.00076408981134315
  21     0.011765583731595
  22    -0.039378847486503
  23     0.015262102257455
  24     0.017886657230404
  25     -0.26247257750471
  26    0.0006031803547348
  27    -0.040798408011704
  28     -0.09871661836631
  29    0.00062592896784258
  30      0.15766366917771
  31      0.12305067174175
  32    0.0097891326862857
  33    -0.021885349034955
  34    -0.004952535018578
  35      0.14948169306418
  36    -0.046764284637527
  37    -0.00041681569966715
  38     0.029195241634411
  39    -0.012252003637473
  40    -0.00035596264835455
  41    -0.013698399392852
  42    0.0087553216143026
  43    -0.0050166940589853
  44    0.0060086009853132
  45    0.0075584725597684
  46     -0.11869870828859
  47     0.052833918355246
  48    -0.001963165253044
  49    -0.047231786433216
  50      0.03155149149928
  51    -0.0014001825302192
  52     0.010905761351782
  53    -0.030692911155111
  54    -0.005023841182069
  55     0.040571379322302
  56      0.06282567248918
  57    -0.0017690227058064
  58     0.013949188649788
  59      0.01750601049296
  60    -0.0012519445179049
  61      0.02364394410175
  62     0.010699106663532
 Sym= A
 Ene=   -0.7623814379
 Spin= Alpha
 Occup=    2.00000
   1     0.076766041652022
   2     0.033804745224805
   3     0.000840263449849
   4    -0.013370223952269
   5     0.043090369861691
   6    -0.078813153948085
   7     -0.14566547700108
   8    -0.00027626155733351
   9    -0.017359621721337
  10    -0.053997019757009
  11    -0.00022603843455102
  12    0.0085246500405407
  13    -0.024667824868866
  14    -0.059670541588988
  15      0.19040417201914
  16    -0.066217283304493
  17    -0.00010159491549636
  18     0.057615409179568
  19    -0.036824965649977
  20    -0.00011219691281694
  21    0.0053264494868785
  22    -0.011268889513163
  23     0.066549000317926
  24     -0.13182242430385
  25      0.15259437634113
  26    0.0010178318935923
  27    -0.018989524159671
  28       0.0850453756935
  29    -5.3433424343828e-05
  30    -0.076491842853102
  31    -0.034290079263135
  32    -0.0052922061227759
  33    0.0057020229794873
  34    -0.007541553852998
  35    -0.029932994090271
  36      0.21772958368413
  37    0.0041821976597535
  38      0.07537942317074
  39     0.099777630407072
  40    0.0025653673051113
  41      0.12501667531576
  42      0.06969287422102
  43     0.053293421789356
  44      -0.1152765448227
  45     -0.20850960407392
  46     0.029855857663586
  47    -0.0089747081828304
  48     0.012129497343929
  49    -0.030976325637429
  50    -0.087996416695244
  51    0.0085260296767425
  52    -0.019675255193615
  53     0.028507164933011
  54     0.081249235865546
  55     -0.11370768987783
  56      0.32074744301683
  57     0.010717602663872
  58     -0.16135652434529
  59      0.15049492267789
  60    0.0075288362419212
  61      0.22185886478585
  62      0.11964055025452
 Sym= A
 Ene=   -0.7490025636
 Spin= Alpha
 Occup=    2.00000
   1     -0.14317876118541
   2    -0.078435327730715
   3     0.048469006281864
   4    -0.096441188581977
   5     -0.17498053320573
   6     0.080962588468385
   7      0.16636808478767
   8    -0.00020711587865312
   9    -0.0093219106438524
  10     0.071253923443459
  11    -0.00011926383330858
  12    -0.010397690580695
  13     0.024091460784497
  14     0.062446375602654
  15    -0.068111719660751
  16     -0.12586657670877
  17    -0.00031190432978614
  18     -0.03501457484835
  19     -0.10581104100382
  20    -0.0002442484514871
  21    -0.023849131826427
  22      0.05161080088513
  23     0.040870363100214
  24    -0.080393390888653
  25     -0.14429444850104
  26    7.3099595874166e-05
  27    -0.019436161041754
  28    -0.061252194505913
  29    -0.0001934963175927
  30     0.086747445799316
  31     0.024850452933483
  32      0.03999814782869
  33    -0.082463384451303
  34    -0.075340149698497
  35      0.11950394186743
  36     -0.17933634694605
  37    0.0011737046270723
  38     0.031192855915352
  39    -0.069087884095184
  40    0.00074640300850493
  41     -0.12167607661408
  42    -0.060197103483405
  43    0.0032142298916373
  44     -0.01454063008481
  45    -0.022057282374668
  46     -0.23787750538701
  47    -0.0016190286812576
  48    0.0036922007982999
  49    -0.098850438992019
  50    -0.024539226020145
  51    0.0026025845997178
  52     -0.01262023554053
  53    0.0089099754130747
  54     0.081678697713002
  55     0.067144728339643
  56      0.31371297194522
  57     0.003318722708045
  58    -0.029207669946095
  59      0.13303931875633
  60    0.0023367622060556
  61      0.19415796519661
  62      0.10143886027211
 Sym= A
 Ene=   -0.7072019372
 Spin= Alpha
 Occup=    2.00000
   1    0.0028969620403617
   2    -0.005600253803117
   3     0.053326245976802
   4     -0.12396185841458
   5     -0.15941379083582
   6     0.023142265212993
   7    -0.099560971396692
   8    -0.00028907012191594
   9    -0.0041259143208852
  10    -0.038420745875022
  11    -6.8789882738203e-05
  12    -0.0086544469641272
  13    0.0090107453815221
  14     0.049808544912613
  15      0.19899960321885
  16     -0.23614795323019
  17    -0.0012427890956894
  18     0.064152698060715
  19     -0.16737982654893
  20    -0.00084398961358593
  21     0.016325327507893
  22    -0.027067991866536
  23     -0.06596084763678
  24     -0.32802751520393
  25     0.034544108763286
  26    -0.002283154230838
  27     -0.11361054410402
  28    -0.028405126832777
  29    -0.00073769261332381
  30    -0.033593719031846
  31    -0.056679781307899
  32    0.00099386343031677
  33    0.0014049439134625
  34     0.061022869839373
  35      0.31230583390014
  36     0.026865267216796
  37    -0.0056263345447774
  38     0.048062402232325
  39     0.014829187179583
  40    -0.0033105575360807
  41     0.010440832117132
  42    -0.028365750469109
  43    -0.032990153394474
  44     0.066095946602387
  45      0.14088010857758
  46     -0.13028615507881
  47      0.20973565398404
  48    -0.015296014939544
  49    -0.017985581297155
  50      0.18180715085715
  51    -0.010714261494622
  52     0.041075243727884
  53    -0.087336767348987
  54     -0.14430892346408
  55     0.058092322684525
  56     -0.15509508363341
  57    -0.013621160748108
  58      0.11382787484671
  59     -0.08271685978408
  60    -0.0095522619422665
  61     -0.14782437817768
  62    -0.086192079835282
 Sym= A
 Ene=   -0.6493757496
 Spin= Alpha
 Occup=    2.00000
   1     0.094711095537928
   2     0.054486458956186
   3    -0.011380500865893
   4     0.015425377688962
   5     0.055875689984033
   6      -0.1174926369075
   7     -0.13993942900467
   8    -0.00017188168497808
   9    -0.046167597695736
  10     -0.06094301036139
  11    -5.500029281983e-05
  12    -0.032020460247586
  13     0.066055728670699
  14     0.096639118231012
  15      0.19479429789335
  16     0.098091580309393
  17    -0.00059415790193725
  18     0.063750375831766
  19     0.058510408104457
  20    -0.00041050190032535
  21      0.02516795837095
  22    -0.048299968618523
  23     -0.12845179861054
  24     0.023181810124448
  25      0.26971195579327
  26    -0.0008775257328224
  27    -0.020297593997243
  28      0.16964890640198
  29    -0.00035444561951558
  30      -0.1856670980834
  31    -0.083061755397366
  32      0.01447649263272
  33    -0.027084276246465
  34    -0.048676839457537
  35    -0.015861540412877
  36     -0.25507034854431
  37    -0.0018931857911452
  38    -0.021858964995487
  39     -0.18818445577483
  40    -0.0010878371764607
  41      -0.1684969068708
  42    -0.071942690606102
  43    -0.036986110642842
  44     0.077943376679885
  45      0.12448375007608
  46     -0.20110970048475
  47     -0.10819782786898
  48    -0.0050306690512651
  49    -0.056685079355363
  50    -0.045774585270362
  51    -0.0035335308500609
  52    -0.016196400754958
  53     0.029418684434981
  54     0.078795554104051
  55      0.18275984027765
  56     0.048943843341626
  57    -0.0043184535335393
  58      0.10317233799051
  59     0.013623492201769
  60    -0.0030321710165718
  61     0.036025883233211
  62     0.015937509077678
 Sym= A
 Ene=   -0.5835536075
 Spin= Alpha
 Occup=    2.00000
   1    0.0024415973142499
   2    0.00085007458508514
   3    0.0025731701105867
   4    -0.0055703420251772
   5     -0.01023930614243
   6     0.013910045811143
   7    -0.0072230965195029
   8     0.084642574394142
   9    0.0082703093976719
  10    -0.0042173169399045
  11     0.039576023817032
  12    5.7759456419179e-05
  13    -0.00028268499413181
  14    0.0012000435691503
  15    -0.0020869381696636
  16     -0.01157031208063
  17      0.20536251359515
  18    0.0022319080923751
  19    -0.0068919940503063
  20      0.14887855430369
  21    0.0029679112304311
  22    -0.0054268786548126
  23    -0.023389400519864
  24    -0.0078493957168841
  25    -0.0018031209086715
  26      0.18234209262548
  27    -0.0094120683926988
  28    -0.0074292380984349
  29      0.12110007909762
  30    -0.0016896976151092
  31    -0.002187454253643
  32    -0.0029828372585276
  33    0.0052174442312696
  34     0.026541207231521
  35     0.012270937908881
  36    0.0039286385598146
  37      0.16757231822018
  38    -0.0032559522673122
  39    -0.0051558555735973
  40     0.080096633593369
  41    0.0063496927090904
  42    0.0044811225454855
  43    -0.0012992253949214
  44     0.002361538801591
  45    0.0057148889467373
  46    -0.013842240558731
  47    -0.012177045497292
  48      0.34062331513451
  49    -0.0004958981383641
  50    -0.0048733906938498
  51      0.23499774074075
  52    -0.0042709460441401
  53    0.0094760658099618
  54     0.017628821654046
  55     0.036025172078452
  56    -0.020187729862291
  57      0.29956996536583
  58     0.024943451572449
  59    -0.012561203188229
  60      0.21012932145223
  61    -0.010262775785368
  62    -0.005901427658317
 Sym= A
 Ene=   -0.5641977305
 Spin= Alpha
 Occup=    2.00000
   1     0.021650973696299
   2    0.0050614807018813
   3     0.024506738851631
   4    -0.051716262347991
   5    -0.096470941829662
   6      0.17662865010599
   7    -0.062021485412882
   8    -0.009916437300678
   9      0.11044714299255
  10     -0.03910964420485
  11    -0.0048122871261087
  12    0.0085221015368801
  13    -0.019751042234071
  14    -0.017441917407189
  15    -0.072828571646667
  16     -0.11613372389959
  17    -0.023168359421327
  18     0.015445649543213
  19    -0.064736670681931
  20    -0.016867394715662
  21     0.030190661397732
  22    -0.057032730348419
  23     -0.25855920601909
  24    -0.056932310277321
  25    -0.047343471129261
  26    -0.018649590005816
  27    -0.084556741695903
  28    -0.098256112281199
  29    -0.013685734279059
  30    0.0089209430923498
  31     0.011969187300763
  32    -0.016104536648391
  33    0.0076374068077767
  34      0.26737160299205
  35    0.0027582541791863
  36      0.17321563194449
  37    -0.011309956744604
  38    -0.059391453474397
  39    -0.0077644356430272
  40    -0.0044303665739838
  41      0.14940947344285
  42      0.13835955597233
  43    -0.028803554667139
  44     0.064656761943739
  45     0.096899643406916
  46    -0.085993943486149
  47     -0.41208930510519
  48    -0.016201900811055
  49    -0.012817909442283
  50     -0.29441379652397
  51     -0.01091687208223
  52    -0.040109026146517
  53     0.077771953156618
  54      0.18400837233945
  55      0.32152850825156
  56    -0.043720619532638
  57     -0.01360943498816
  58      0.14710512808545
  59    -0.042263605139384
  60    -0.0095415184153463
  61     0.031016343895696
  62     0.062087382239143
 Sym= A
 Ene=   -0.5317624707
 Spin= Alpha
 Occup=    2.00000
   1    0.00012182782374675
   2    -0.00046562198734587
   3    0.00055411373405384
   4    -0.0010215478561672
   5    -0.0024033875758601
   6     0.006435198027482
   7    -0.0009704310308665
   8      0.16318480706784
   9    0.0039654472741567
  10    -0.00092580368384154
  11     0.081628422434762
  12    0.00074530727053433
  13    -0.0016106922706067
  14    -0.002672490930377
  15    -0.0038044341629889
  16    -0.0045799005452535
  17      0.36245374052107
  18    -0.00042384502989787
  19    -0.0029008717817885
  20      0.26557299891028
  21    0.00035852394487591
  22    -0.00059461759600795
  23    -0.0050813695274529
  24    0.00099259302243341
  25    0.00024219210226153
  26      0.25012557244601
  27    -0.00033140394112271
  28    -0.0017207312925381
  29      0.21516177681545
  30    -0.0001613900586144
  31    0.00050453076786886
  32    0.00065820154132064
  33    -0.0025065080636873
  34    0.0026906934802678
  35    -0.0076487178051974
  36    0.0074908439912394
  37    0.0097295554810248
  38    -0.0029403701158768
  39    0.0015149132745219
  40    -0.031953170597313
  41    0.0049586196862799
  42    0.0056360159573953
  43    -0.0016570200874175
  44    0.0040793606561893
  45    0.0046561066182918
  46    0.0023260601377064
  47    -0.019533999178181
  48     -0.23704197251257
  49    -0.00034250179531365
  50    -0.016015133519962
  51      -0.1745123225284
  52    0.00054403424643748
  53    -0.0019222362301031
  54    -0.00077076274421298
  55    -0.0016388394858289
  56     0.008967793465341
  57     -0.22032677156809
  58    -0.005747148513323
  59    0.0048664558808334
  60     -0.15496707165129
  61    0.0076165117188308
  62     0.007617731295399
 Sym= A
 Ene=   -0.5207759592
 Spin= Alpha
 Occup=    2.00000
   1     -0.10496370606206
   2    -0.067469504090599
   3    -0.049075424094448
   4      0.10423448827647
   5      0.22507781119853
   6     -0.43292555316415
   7      0.20961040022296
   8    0.0012680189455981
   9      -0.3014523815981
  10      0.14579278606166
  11    0.00071594332798798
  12    -0.007030260705829
  13    0.0060334551511641
  14     0.056936945760995
  15      0.17590054926758
  16      0.14831976015904
  17    0.0028725260366078
  18     0.026099961336643
  19     0.069623151213413
  20    0.0020973615512653
  21     -0.01920207135254
  22     0.028399267795341
  23      0.20086288003418
  24     -0.21454227992625
  25    -0.092722838045355
  26    0.0020142078896266
  27    -0.024599081468694
  28     0.014871044664247
  29    0.0016310650023416
  30      0.10010075033731
  31       0.0766164977366
  32     0.021311217059393
  33    -0.048038923374464
  34     -0.12404825786327
  35      0.14953455419843
  36      0.12146657801997
  37    0.00050814903513159
  38     0.096414040057306
  39     0.084102955369518
  40    1.7957103441296e-05
  41     0.071728969149264
  42     0.053407465633549
  43    -0.016425990699951
  44     0.031090757197487
  45     0.093058414978055
  46    -0.065888711132896
  47    -0.095388210421032
  48    -0.0005122236222756
  49    -0.042347396907468
  50    -0.066544753078781
  51    -0.00042776415794595
  52    -0.0072049479350464
  53      0.01220015433577
  54     0.044141632671535
  55      0.13340689991157
  56     -0.03017060075193
  57    -0.00041559496678592
  58     0.083102001346204
  59    -0.031506124995864
  60    -0.00029473464686896
  61    -0.0071884359364625
  62    0.0051881747456005
 Sym= A
 Ene=               0
 Spin= Alpha
 Occup=    1.99856
   1    -0.014253761238785
   2     -0.14273366901529
   3     -0.16202131315012
   4      0.37870960570402
   5      0.43594800171305
   6    -0.015795476110133
   7       0.1085475756798
   8    -0.00063100054548342
   9    -0.085137163265371
  10     0.059997790164002
  11    -0.00027296174686742
  12     0.056467746219457
  13     -0.12464580574651
  14     -0.29908617506053
  15      -0.1269615898193
  16     -0.39360168423263
  17    -0.00088352078134533
  18    -0.031877652328269
  19     -0.27888949840984
  20    -0.00062009252135933
  21    -0.0040915937226177
  22      0.03391714704165
  23    -0.0064220632096822
  24    -0.028862794131593
  25     0.089273028838114
  26    -0.00072579884531156
  27    -0.039244818659742
  28     0.017550475511974
  29    -0.00054477730410147
  30    -0.080563207814309
  31     -0.10935550576886
  32    -0.014177246210987
  33     0.032061803726925
  34     0.089565429102411
  35    -0.028976314970005
  36    -0.041556056515837
  37    -0.0004724673451408
  38    -0.012583876575389
  39    -0.031844741874541
  40    -0.00023628380534122
  41    -0.023006167321999
  42    -0.044454076515259
  43    -0.002719837318213
  44    0.0080627142605424
  45    -0.0034874353082181
  46    -0.029908547150709
  47    0.0023821591697206
  48    -0.00026973238291776
  49    0.0064932341780143
  50     0.002470816821958
  51    -0.00016365198620933
  52    0.00093938047166819
  53    -0.0020727743621479
  54    -0.0054936619784003
  55     0.018837291976504
  56    0.0072913646062141
  57    -0.00015375572141588
  58     0.012942480942795
  59    0.0038520028234342
  60    -7.7128075099832e-05
  61    0.0013572345004782
  62    0.0034357608178553
 Sym= A
 Ene=               0
 Spin= Alpha
 Occup=    1.98742
   1    0.0022337999495211
   2    0.0046154364417412
   3    0.0011636582869712
   4    -0.0019593498121482
   5    -0.0029910958880994
   6    0.0047090828794894
   7    -0.0021594557793824
   8    0.0016181666360488
   9    0.0045068771471916
  10    -0.00013596042205456
  11    0.0010298425833528
  12    0.00015512600016819
  13    0.0019069376729122
  14    -0.010097582298835
  15    -0.0084168239550224
  16    0.0092650501733442
  17    0.0017140662026418
  18    -0.0009291438680605
  19     0.014511988081882
  20    0.0012674114898781
  21    -0.0067445872449042
  22     0.018327202246633
  23    0.0031880592176039
  24     0.027679912250187
  25    -0.010615793789036
  26    -0.00044688642982393
  27    -0.025970845251915
  28     -0.01013936135754
  29    0.00070940747765926
  30    0.0059098248406684
  31    -0.019357318056354
  32    -0.017464458703541
  33     0.049779488155123
  34      0.14766381126202
  35     0.036432181513196
  36    -0.025657201288231
  37    -0.0051435161236806
  38     0.039244321421435
  39    -0.041986002740021
  40    -0.003402122184063
  41     -0.01743792576799
  42    -0.050261440061513
  43      0.11369555283683
  44     -0.27173376422992
  45     -0.42877232016355
  46    0.0083101419845694
  47      0.26079951360749
  48    -0.014211388374265
  49      0.02655581707729
  50      0.19147639678068
  51    -0.0098593594694477
  52      -0.1372332624102
  53      0.33350639654888
  54      0.48441817226147
  55      0.26677936698215
  56     -0.10907412122266
  57    -0.012502550380566
  58      0.19279595733726
  59    -0.087490207540172
  60    -0.0086712140500323
  61    -0.021858841112124
  62     -0.12703606712906
 Sym= A
 Ene=               0
 Spin= Alpha
 Occup=    1.76560
   1    -0.00094070571202739
   2    -0.00058953713885365
   3    -5.1973837350738e-05
   4    -0.00019643276300703
   5    0.00060744777417621
   6    0.00023738227988917
   7    2.6334792120621e-05
   8      0.41857553480316
   9    -1.7204222681619e-05
  10    -0.0015235548620233
  11      0.29260074592927
  12    2.4993745789737e-05
  13    -0.00032471269792967
  14    0.0010597431736742
  15    0.00019025545460215
  16    -3.917545082862e-05
  17     0.098113874134437
  18    -0.00049508394625915
  19    0.00042955289141772
  20     0.047528356549825
  21    -1.4663866754923e-05
  22    0.00049724271504112
  23    -0.00037262920727047
  24    -0.00015843479473601
  25    -3.9532523623429e-05
  26     -0.20555395033143
  27    0.00055717252658351
  28    -0.00052210974703974
  29     -0.12318956137813
  30    -0.00023620240955931
  31    -9.0282609027798e-05
  32    4.6575530021824e-05
  33    -0.00035909588043346
  34    0.00053976437643302
  35    -0.00012012048300001
  36    9.5084333787754e-05
  37     -0.38317762570896
  38    -0.00015976160230351
  39    0.00049173580708961
  40     -0.28637257517441
  41    -0.00014459215521087
  42    -0.00017629125622088
  43    -0.0001947507131012
  44    0.00090429173690724
  45    0.0004484213614449
  46    -0.00015858627257848
  47    -0.00053150280711863
  48     0.034657826636677
  49    0.00061195655877022
  50    -0.00024428016381421
  51     0.053351679575504
  52    0.00022115842611993
  53    -0.00018024381267666
  54    -0.0015625636869967
  55    -0.00051734269765915
  56    0.00031454677111418
  57      0.17737838886488
  58    -0.00026928916096191
  59    0.00040677299053667
  60      0.15265505568635
  61    6.2481209095564e-05
  62    0.00014218781256241
 Sym= A
 Ene=               0
 Spin= Alpha
 Occup=    0.23558
   1    0.00038401463283317
   2    0.00038850672148183
   3    4.7259280187083e-05
   4    0.0016162412113271
   5    -0.0038347722262288
   6    -0.00025786499790717
   7    0.00022223884555804
   8     -0.45613569778794
   9    -0.00095427368624523
  10    -0.00060076600609081
  11       -0.390183616586
  12    -1.5471927554955e-05
  13    -9.1078457298199e-05
  14    0.0012425243328932
  15    -0.00018033686522836
  16    -0.00027400462184081
  17      0.19712890525914
  18    -0.0012450733493212
  19    0.0004977556308918
  20      0.24017736690847
  21    -5.8179912084283e-06
  22    -0.00022106494034327
  23    0.0010280523733954
  24    0.00018683188295393
  25    -6.0486100758191e-05
  26      0.15264869741589
  27    -0.0010950138986517
  28    0.00029112866859109
  29        0.235849925242
  30    0.00026798984354929
  31    -0.00034557431173963
  32    3.5229959404998e-05
  33    8.8596586434851e-05
  34    -0.00079902502464809
  35    -0.00042543815739285
  36    0.0002454066462803
  37      -0.4059285592169
  38    -0.00022212972969646
  39    -0.0001914501818145
  40     -0.41178784100885
  41    0.00018768831339864
  42    0.00012466768973834
  43    -5.3494056063578e-05
  44    7.458948459039e-05
  45    0.00039646348526545
  46    0.00017032151304493
  47    -0.00023627331104976
  48    0.00053486909193435
  49    -0.00074768263143353
  50    0.00060375493761923
  51     0.027198174741257
  52    -3.3720762644431e-05
  53    8.7558296953915e-05
  54    0.0005486916239287
  55    0.00030391162607743
  56    0.0001985426200506
  57      0.16293395732597
  58    -0.00040884645720242
  59    0.00033902783437118
  60      0.16723084359696
  61    -0.00039310485204385
  62    -0.00049065519543631
 Sym= A
 Ene=               0
 Spin= Alpha
 Occup=    0.01212
   1    -1.2312148760699e-05
   2    3.5405857476425e-06
   3    2.4225735670552e-06
   4    -0.00050793730838706
   5    0.0015392557612718
   6    -0.00033232551246649
   7    -4.9544613766785e-05
   8     0.025702050028509
   9    0.00037965653175383
  10    0.00070441910675358
  11     0.044201800508627
  12    -0.00015426037480152
  13    -4.060603523552e-05
  14    0.0018786004023672
  15    0.00041087842735816
  16    -0.00011582664110829
  17    -0.063739224057591
  18    0.0024129219493626
  19    -0.00099277322394097
  20    -0.070170728180716
  21    0.00027162762836419
  22    -0.00097956103044262
  23    -0.0043689165195901
  24    -0.00082183366384569
  25    1.1956973923132e-05
  26     0.019890582900263
  27    0.0008653679974021
  28    -0.00085279565206391
  29    -0.042082011980189
  30    -0.00046795557622168
  31    0.00051314155576322
  32    -0.00041970655863725
  33    0.0014430503234902
  34    0.0064632111001319
  35    0.0025345112855486
  36    -0.0024193125347572
  37      0.19449103817383
  38    0.0021470106649306
  39    -0.0037268030741899
  40      0.26249393737883
  41    0.00018531490514507
  42    0.0012994639629801
  43    0.0010334261723195
  44    -0.0057495592640516
  45    -0.0050877309042379
  46    0.00069771004843769
  47    0.0038266354793084
  48     -0.53016529676378
  49    0.0025814987318983
  50    -0.0075520689484386
  51     -0.49047984796601
  52    0.00057034995802035
  53    -0.0039829831057409
  54    4.9349770535604e-05
  55    -0.0037956807341946
  56    -0.0026114687692296
  57      0.57269500002893
  58    0.00066807539435308
  59    -0.0049637437804967
  60      0.33204497450089
  61    0.0043208500538621
  62    0.0067004482644849
 Sym= A
 Ene=               0
 Spin= Alpha
 Occup=    0.00072
   1      0.54179828998988
   2      0.24479519772848
   3     0.046065039672638
   4      -1.0430822774493
   5       1.9544986069476
   6    -0.027250647725326
   7     -0.15473601341409
   8     0.016366897040657
   9      0.78830684246538
  10       1.5088685908999
  11    -0.018204757214573
  12    -0.013200517763922
  13      0.37401962668632
  14      -1.7991534194444
  15    -0.043365541500162
  16      0.32545442246889
  17    -0.0022206692685942
  18      0.99794976968922
  19     -0.54784655111791
  20    0.00075211852123543
  21    0.0017251097593965
  22     -0.18929394438275
  23    -0.0092583479723557
  24     0.071277848050094
  25      0.13284680792178
  26    -0.0038651188888061
  27       0.4308480388971
  28       0.2828474454097
  29     0.013525729724545
  30     0.090130044490532
  31      0.33883122328646
  32     0.015680642166018
  33    -0.055629333400214
  34     -0.64304264437993
  35     0.077540649245143
  36     0.017044785492747
  37    -0.00020080055764018
  38     0.015293327568676
  39      0.24917143525301
  40    -0.0088930492777208
  41    -0.031747924570153
  42    -0.013346682291244
  43    -0.0046860737247736
  44    -0.056276864571692
  45      0.26842033015932
  46    0.0083103284653327
  47     0.033716914431389
  48    -0.0004877303327949
  49     -0.19671472206081
  50     0.055883070805607
  51    0.0041221544433115
  52    0.0012522693549493
  53    -0.022094449736166
  54     0.061169161326784
  55    0.0057478853489992
  56    -0.0031056247433266
  57    0.0020759922536325
  58     0.011018389457882
  59    -0.030344786812748
  60    -0.0028431858004805
  61    -0.0043168844663258
  62    0.0055605680836633
 Sym= A
 Ene=    0.1844901328
 Spin= Alpha
 Occup=   -0.00000
   1    -0.0012711642107069
   2     -0.01788810931961
   3    -0.00075118112593109
   4    0.0016143661007769
   5     0.010937911942647
   6    0.00020768594485534
   7    -0.0034640473564715
   8      0.14974595527482
   9    0.00059895338541472
  10    -0.0098426227170682
  11      0.33580121062979
  12    -0.00019416923747545
  13    -0.00014158270300241
  14    0.0057014561211479
  15    0.00067427655233856
  16      0.00035169137487
  17     -0.39670371564191
  18    0.0020231282168844
  19    0.0027405981603205
  20     -0.64824189192742
  21    -0.00050981922666169
  22    0.00065153245222717
  23    0.0085261232449595
  24    0.00052656515395382
  25    -0.003101881159352
  26      0.37512031573563
  27    0.0016355478383329
  28     -0.01157458922804
  29      0.81229691985193
  30    5.5958602958885e-05
  31    -0.015832963823021
  32    0.00037455164248931
  33    -0.0006148320120091
  34    -0.0040921676547412
  35    0.0005463538154693
  36    -0.0005107017022904
  37     -0.15880330674808
  38    -0.0020152622871206
  39    0.00075297424287883
  40     -0.52685980805664
  41    0.00059819898876188
  42    0.0048939794183899
  43    9.2815003147693e-06
  44    5.3883169550973e-05
  45    0.0010506186691515
  46    5.9751451158262e-05
  47    -0.00046647867884611
  48     0.030792753871196
  49    -0.00092897276696001
  50    0.00066896949245763
  51      0.14854330298152
  52    -0.00015707274150263
  53    0.0004061455890668
  54    0.0018932163749208
  55    -1.806313947703e-05
  56    0.00029484212475604
  57     0.022355755620955
  58    -0.0006182913309895
  59    0.00081781197716709
  60    -0.020507925857376
  61    -0.00029536668291459
  62    -0.0025348464613896
 Sym= A
 Ene=    0.1992611066
 Spin= Alpha
 Occup=   -0.00000
   1      0.03375936465602
   2     0.073433988968414
   3    0.0073953828836041
   4     -0.05079516323919
   5    -0.026406091503246
   6    -0.017902070057515
   7    -0.016003793906133
   8    0.00029384939397436
   9    -0.021537193777742
  10     0.068659661395067
  11    -0.0020618420927095
  12    -0.010119156353648
  13     0.034796105027527
  14    -0.028534722790584
  15     0.024591258142843
  16    -0.00051047842977164
  17    0.0012602369484753
  18    -0.0049525366983685
  19    -0.047610420910288
  20    0.0015985693222892
  21    -0.021668741158747
  22     0.032195852250288
  23      0.26348849769748
  24     0.066506743035559
  25    -0.032199526028905
  26    -0.0012021499489837
  27    -0.0091754830200949
  28     0.068578008628741
  29    0.00018342483030886
  30    -0.036961554689709
  31     -0.26546478634687
  32     0.028961086138031
  33    -0.024054996807787
  34     -0.51942796723092
  35      0.05756548617283
  36     -0.19428059889994
  37    -0.00091692392263866
  38      0.24232568901908
  39     -0.72198323690483
  40    -0.0024010863920757
  41    -0.013589498636313
  42      0.91820971768659
  43     0.018612550004178
  44    -0.016704693902742
  45     -0.33432651204009
  46     0.071680809658252
  47      0.05130104050248
  48    0.0029437724269606
  49      0.24438126568811
  50      0.12077793905466
  51     0.004655464840979
  52     0.058128606824997
  53    -0.065125406627512
  54      -1.0055387810404
  55     0.017251365485123
  56      -0.2905617952428
  57    -0.0022765392938229
  58      0.11744718744855
  59     -0.63219832516085
  60    -0.0041735263950946
  61     0.053619427778609
  62       1.4165497553647
 Sym= A
 Ene=    0.2701678548
 Spin= Alpha
 Occup=    0.00000
   1    -0.004692901533051
   2      0.86271785899472
   3     0.045482824462873
   4     0.014640000337535
   5     -0.92680654207899
   6    -0.033965304271818
   7      0.15291849863113
   8    -0.0010201415079734
   9     -0.21430513439393
  10      0.15164445786616
  11    0.0046444852094696
  12     0.012117814246289
  13    -0.032018978264842
  14    -0.016047870974724
  15     -0.12570300490603
  16     0.034621817291088
  17    -0.0024997731988836
  18     -0.41447888275856
  19      0.14383849732015
  20    -0.0044278007796001
  21    -0.033881280263856
  22     0.055114736521341
  23      0.75101544814521
  24    -0.096335045941182
  25     -0.03201915470502
  26    0.0031147792549736
  27     -0.36768375014245
  28     -0.22103162610576
  29    0.0039796991351209
  30    -0.029466499249945
  31     -0.64735480102247
  32    -0.079542067309194
  33     0.097438428031031
  34       1.4636111547539
  35     0.037078647916182
  36      0.15024939893276
  37    -0.0012257789995578
  38      0.26132521478991
  39      0.65904677979642
  40    -0.0030963714887039
  41    -0.069720546194636
  42      -1.6037456026575
  43    0.00068951449173197
  44    0.0016743278122437
  45    0.0024343492542132
  46      0.10170881024969
  47    -0.087320075358607
  48    0.00067821484410274
  49      0.28970693952494
  50     -0.12726080318505
  51     0.001191919699141
  52     0.040028807618498
  53     -0.07451517098713
  54     -0.58308156924444
  55      0.04527344398967
  56     -0.04523331905784
  57    -0.00044836727145817
  58      0.15364067359893
  59     -0.13008416078521
  60    -0.00026235812953387
  61      0.06214651810075
  62      0.57723279488174
 Sym= A
 Ene=    0.2888683423
 Spin= Alpha
 Occup=   -0.00000
   1    -0.055069785553196
   2     -0.93166486799819
   3    -0.048454564394195
   4     0.083072398036045
   5      0.64538243625222
   6     0.032290287816589
   7     -0.13603750756385
   8    -0.00010615142047305
   9      0.10512431507733
  10     -0.35960686135119
  11    0.00017373726033283
  12    -0.014171045304427
  13     0.031767206266573
  14      0.16308081098922
  15      0.10589804196668
  16    -0.0030053359670877
  17    -0.0001032997700982
  18      0.13350342024527
  19     -0.13448230587643
  20    -0.00045240782628967
  21     0.062351106513588
  22    -0.080256012518317
  23     -0.72824728739907
  24     0.049858625903739
  25       0.1569094253958
  26    0.00025111224453869
  27      0.56637254746619
  28      0.72563918259994
  29    0.0011635986730093
  30     0.083742604105465
  31        1.558643197071
  32    -0.042673407810182
  33      0.05843996654101
  34      0.33461201107029
  35      0.02987804032519
  36      0.11859587831457
  37    -0.00063220717042963
  38      0.45912599349441
  39      0.55172490110709
  40    -0.0018251227269331
  41    -0.070109615483785
  42       -1.145341370434
  43     0.011904052550591
  44    -0.032066828935558
  45     -0.12153133963568
  46     0.069494096712872
  47     0.029745630793161
  48    0.0013077664480692
  49     0.041225959650698
  50    -0.092744147747517
  51    0.0022345792400159
  52     0.034255303790055
  53    -0.059335323648734
  54     -0.44159116456581
  55       0.0200069598785
  56     -0.11310658191774
  57    -0.00091917555470137
  58     0.066234012130776
  59      -0.2809231631446
  60    -0.0018442459883974
  61     0.036882558937325
  62      0.70031071026697
 Sym= A
 Ene=    0.3278781986
 Spin= Alpha
 Occup=   -0.00000
   1     -0.19863667878387
   2       0.9092282259085
   3     0.027869190123459
   4      0.25467876724396
   5      -1.2806917401977
   6    -0.0016615864403078
   7      0.29846620518763
   8    -0.0047468237074029
   9     -0.36161586115561
  10    -0.061907265579648
  11     0.011825059091801
  12     0.022470448963637
  13    -0.084276268938491
  14     0.077815380261391
  15    -0.065488334873243
  16     -0.22920371106544
  17    -0.0044766911600601
  18     -0.54644114671483
  19     0.075046848362495
  20    -0.0080556315941389
  21     0.058790348545823
  22     0.023206759331166
  23      -1.3583845939494
  24    -0.058415968000087
  25      0.18486771429556
  26    0.0065787661472597
  27      -0.5885088179432
  28       1.0567109827794
  29     0.004363358908525
  30      0.00101185397734
  31       1.5404455214983
  32      0.01105003565145
  33     0.036043423379536
  34     -0.16119699360925
  35     -0.13994995174741
  36    -0.086508842034539
  37    -0.0018413128504264
  38      -0.4304198704267
  39     -0.83744776794468
  40    -0.0033782540355382
  41    -0.025718622061731
  42      0.81648725938782
  43    -0.019944354489484
  44     0.053001266636859
  45      0.21165358526195
  46     -0.07146943309652
  47     0.086160416649286
  48    0.00054390662267095
  49      0.10504099797979
  50       0.2570077909546
  51    0.00013029490382947
  52    0.0040347853323567
  53     0.020420237786102
  54     -0.28337092704912
  55    0.0094219850188515
  56    -0.022486631639578
  57    -0.00069219922589053
  58      0.13213776731945
  59    -0.015823866396656
  60     0.001341530151859
  61    -0.0085253511056639
  62      0.14803266077381
 Sym= A
 Ene=    0.3494106556
 Spin= Alpha
 Occup=   -0.00000
   1    -0.036630270836118
   2      0.66330487173178
   3     0.044026336993641
   4    -0.0093202146527032
   5      -1.1886758059586
   6     -0.10952772665991
   7     0.039900986090004
   8    -0.00077463483672631
   9     -0.61961675942187
  10    -0.028325765176193
  11    0.0016629755252928
  12    -0.086775556193826
  13      0.12445661913057
  14       1.6880739449903
  15     0.087800346431873
  16     -0.18117991977614
  17    -0.00047758699127194
  18     -0.13134643412606
  19     -0.73816677791337
  20    -0.0012389061857796
  21     0.040731344373187
  22    -0.067138780229645
  23      0.23117788591969
  24     0.091343037533406
  25    -0.053528743385162
  26    0.00090108331876427
  27       1.4383181506335
  28      0.37533728754853
  29    0.0014188262613914
  30    -0.066619370231096
  31      0.37721543409999
  32    -0.037090557682194
  33     0.062617706472229
  34     -0.27239631409344
  35      0.10892965883489
  36    -0.098556745580492
  37    -0.00080153316313444
  38       1.5954866954806
  39     0.032268078143117
  40    -0.0022075598201957
  41     0.046200720215225
  42    -0.068912028946565
  43     0.095231019452349
  44     -0.14307055834047
  45      -1.8801645409035
  46     0.087069823631125
  47     -0.15637577002597
  48    0.0014491382576947
  49    -0.034104668931657
  50     -0.80527859813586
  51    0.0024569326542424
  52    -0.042632220831081
  53      0.04680521560359
  54       1.0736913864769
  55     -0.11148209510744
  56    -0.0084782505105942
  57    -0.0010257003161158
  58     -0.62402650267443
  59    -0.042377508745177
  60    -0.0018701199286853
  61     0.010813084863399
  62     -0.53956560708967
 Sym= A
 Ene=    0.4727660881
 Spin= Alpha
 Occup=   -0.00000
   1    -0.0020974412316953
   2      0.62577497934888
   3     0.034960458377321
   4    -0.0023387991845394
   5     -0.94275634021597
   6    -0.010726233610595
   7    -0.0021189556451486
   8    0.00068217692978874
   9     -0.63954451682737
  10     0.079448097889248
  11    -0.00095984387639753
  12    -0.088654491125486
  13     0.094624325309656
  14       2.7213457555335
  15    -0.001790205580204
  16     -0.15132176111867
  17    9.9543142874408e-05
  18       0.5989259051542
  19      -1.0313695160707
  20    0.00042666452520825
  21     0.027575471684802
  22      0.13545104576722
  23      -1.0821738343248
  24      0.13903835921405
  25      -0.1280507585583
  26    -0.00038817110728838
  27       2.0396384872483
  28         -1.7549670044
  29    -0.00037082219491272
  30      0.12300867760954
  31     -0.93213964088539
  32     0.046340284132059
  33      0.12220136096536
  34      -1.7258068239424
  35     -0.10439175129391
  36      0.15532240023808
  37    0.00029921106316052
  38      -1.5150884369798
  39       1.9523666736645
  40    0.0010266007389703
  41      0.14095058455028
  42     -0.94802050364884
  43    -0.084774869643533
  44     0.088020001052327
  45       2.6710876136547
  46      0.02112221825982
  47      0.17094599636621
  48    -0.00073125877276116
  49     -0.58154602830865
  50      0.92999900444493
  51    -0.0013344109628677
  52     0.035948746836333
  53     0.012038540442836
  54     -0.93949644226062
  55      0.02205013844694
  56    -0.0047906618061574
  57    0.00047984301684184
  58      0.67501787666804
  59    -0.013554816798371
  60    0.0010942135896402
  61    -0.033550795985612
  62      0.54824578419655
 Sym= A
 Ene=    0.5239190258
 Spin= Alpha
 Occup=   -0.00000
   1     0.012003681954107
   2      0.33672063718862
   3    -0.015892371000929
   4      0.17156658173873
   5     -0.44969813392697
   6      0.15836913049979
   7     0.066680715662957
   8    -0.0016828632367703
   9     0.048215786628908
  10     -0.15369441998272
  11    0.0028337718945936
  12      0.04318841878436
  13    -0.080842779244757
  14      -0.3972149667585
  15     -0.10236028113777
  16      0.06463956412041
  17    -0.00072138589560585
  18     -0.65782143769945
  19    -0.0015975154152122
  20    -0.00083504244809882
  21     -0.13623315236787
  22      0.15765661891869
  23       4.2860705874151
  24     0.082125165811414
  25       0.2174484319837
  26      0.00138559443029
  27       2.2645616755542
  28       1.9731130880594
  29    -0.0013718146802524
  30    -0.022642470729287
  31      0.62720522912519
  32      0.13196817648537
  33     -0.16057302655954
  34      -4.0353926811317
  35     0.061209281802494
  36      0.18264557083437
  37    7.9613156051456e-05
  38       2.7829600781865
  39       1.2334074855364
  40    0.0019165172005421
  41    -0.018164113824941
  42     -0.12460508125777
  43    -0.038154438338141
  44     0.074375814106851
  45      0.19367285856366
  46    -0.047625612429559
  47     0.099260466707012
  48    -0.0010377704715601
  49    -0.086004722089583
  50     -0.14238108000459
  51    -0.0026628078052392
  52     0.023865129840843
  53       -0.131226304421
  54     0.074452940460334
  55      0.20128834893133
  56     0.068015811105668
  57    0.00019831153832054
  58      0.24707286810908
  59      0.14099471258005
  60    0.0027112121207258
  61    -0.080571497175784
  62     -0.45847929794821
 Sym= A
 Ene=    0.5788026014
 Spin= Alpha
 Occup=    0.00000
   1    0.00057319168686476
   2     -0.56015987633727
   3     0.038219832032227
   4      -0.1547153451196
   5     -0.74247269096925
   6     -0.14349186084166
   7      -0.1850338000571
   8    0.0019745338688658
   9      -0.7267885741712
  10     -0.52839083634281
  11    -0.0027959138385287
  12    -0.045929117663831
  13      0.13672951924735
  14      0.34637285385785
  15    -0.096191227779777
  16    -0.022301394943659
  17    0.00033503597736207
  18      -1.0522039459452
  19      -0.2316366784204
  20    0.00080847472627602
  21     0.011755062771333
  22     -0.03041426826808
  23     -0.49339693907752
  24      0.14536738641681
  25    -0.012695559773212
  26    -0.0011320256354962
  27      -1.0027168866992
  28       1.0068081878614
  29    0.00043370399745297
  30    -0.020448291079882
  31      0.86033908135567
  32    -0.033101632834194
  33    -0.0020974968513956
  34       1.0940102116202
  35    -0.033633332536488
  36    -0.092399733806894
  37    0.00011399385697962
  38       0.5943380086019
  39       -1.870229325092
  40    0.00062039141535635
  41    -0.033112318508834
  42        1.242495134027
  43    -0.040063809837729
  44      0.09161555643759
  45      0.82937836386709
  46      0.34670600337315
  47     0.033217291237683
  48    -0.00058180428524684
  49       2.1893840675528
  50      0.31975681690853
  51    -0.00071533279210595
  52     0.063316303681117
  53     -0.10632076116183
  54      -1.7951658271637
  55      0.14723257194668
  56      0.23556739463382
  57    0.00048030911589436
  58       1.3725548062117
  59        1.139732379662
  60    0.00048183849695413
  61    -0.056598801405995
  62     -0.68684925943317
 Sym= A
 Ene=     0.620068207
 Spin= Alpha
 Occup=   -0.00000
   1    -0.039628000337822
   2      0.73902540939841
   3    -0.067353552846892
   4       0.2087656996632
   5       1.6369539698969
   6      0.14339032576982
   7      0.27140064454925
   8    -0.0024220455622251
   9       1.3235025895724
  10       1.0291629379957
  11    0.0034120906962061
  12     0.031160247988221
  13    -0.044528739629135
  14      -0.9796653656692
  15       0.4047938611542
  16    -0.057981333600934
  17    -0.00035342851721964
  18       2.0791510890005
  19      0.39212395998317
  20    -0.00086415691821049
  21     0.033856719787064
  22     0.042664132972031
  23      -1.2774500032249
  24      0.13224395218481
  25     -0.12084752215371
  26    0.0014013156958018
  27      0.40345347252045
  28      -1.0474731862542
  29    -0.00077925591346842
  30     0.053455365516375
  31     -0.59112032135569
  32    -0.029296603569921
  33    -0.033537576537093
  34       1.1019234649324
  35        0.235049850632
  36      -0.1085765949515
  37    5.4145665659445e-05
  38    -0.032703913951319
  39     -0.37574637148935
  40    -0.00070061940324318
  41    -0.057130686442179
  42      0.11097698836377
  43    0.00040187903307271
  44    -0.051988585224417
  45      0.64714651266924
  46      0.29606170298295
  47    -0.039682563770956
  48    0.00055938101938239
  49       1.2277507392327
  50      0.15992889733614
  51    0.00058785419622698
  52       0.0361090630041
  53    -0.063090770109054
  54      -1.0439949819303
  55     0.048254170256439
  56      0.11446312842438
  57    -0.00044278727780622
  58      0.75400371873299
  59        0.634938549127
  60    -0.00036424534330836
  61    0.0069469847571227
  62     -0.32318191755081
 Sym= A
 Ene=    0.7260349647
 Spin= Alpha
 Occup=    0.00000
   1    -0.00088534460429951
   2    0.0011206523627891
   3    -7.7898186449492e-05
   4    0.0010001103184831
   5    0.00023349290800438
   6    0.00011636881729874
   7    0.00063948077595802
   8    -0.083019472258934
   9    0.00064113853940611
  10    -0.00027053589600421
  11     0.075613086017386
  12    9.9427648120265e-06
  13    7.4312898308042e-05
  14    -0.00046653978051161
  15    0.00037113850377321
  16    -0.00067016611020022
  17     -0.15980814224374
  18     0.001685957765988
  19    0.0011594604662799
  20    -0.0015096573226333
  21    0.00014250862923316
  22     0.000656340444912
  23    -0.0023666633136303
  24    0.00074708363383013
  25    -0.0004215175166531
  26     -0.65007558913022
  27    -0.0011194676862564
  28    -0.00025999440825295
  29       0.5147499080585
  30    0.00062955727489133
  31    2.8277961897992e-05
  32    -5.3069691908937e-05
  33    0.0002908875718122
  34    0.0018736959651193
  35    -0.00040459822738198
  36    -0.00053836739430162
  37      -0.7594448669245
  38    0.00071567364881577
  39    0.00041312922718197
  40      0.78775500533757
  41    -0.00054500922821433
  42    -0.00048650371861882
  43    4.282639222537e-06
  44    0.00023486918200822
  45    -0.0021745461824307
  46    -0.00025787141542697
  47    -0.00094136320513204
  48     -0.17888532086717
  49    -0.0001002124866744
  50    0.0002215041191897
  51    -0.070466625491239
  52    -3.742379882461e-05
  53    6.9832881101462e-05
  54    0.00051824272462986
  55    0.00068819927667389
  56    -0.00018676832194963
  57     -0.15452906540653
  58    -0.0016212934247842
  59    -0.00079939495679571
  60       0.1562653633285
  61    -2.9243228873429e-05
  62    0.00050203923345608
 Sym= A
 Ene=    0.7531047512
 Spin= Alpha
 Occup=   -0.00000
   1     0.077475745371176
   2    -0.027751817242129
   3     0.013334330966163
   4    -0.0032615648623836
   5      -0.5048825229743
   6      0.12113427250565
   7    -0.0095838659145843
   8    0.00027426880665365
   9     -0.39160515300559
  10     -0.23396179927143
  11    -0.0011682238830528
  12     0.026090319198173
  13     -0.15384585760713
  14      0.35509107803632
  15     -0.20260189493526
  16    -0.028419762867105
  17    0.00045394247215298
  18     -0.52082441941533
  19     -0.10535086646967
  20    -0.00072723963044499
  21    -0.041833965766849
  22     -0.58796597706086
  23       0.5713047916702
  24     -0.51829496465227
  25    -0.089356352840951
  26    -0.0055466613082214
  27      0.58658972327385
  28      0.54368388101912
  29    0.0075328795009042
  30     -0.24082214696089
  31      0.24440879062804
  32    -0.031656072926867
  33     -0.55722935170675
  34      0.29677002409081
  35      0.45108743556392
  36      0.21131855028043
  37    0.00087171551088937
  38     -0.54643362677274
  39     -0.68945092723345
  40    -0.005489487938792
  41      -0.1031167492982
  42      0.31199656204702
  43      0.02717896958936
  44     -0.14371548466892
  45      0.45376311532884
  46      0.24471286022946
  47      0.13798617216742
  48    0.00081718908939056
  49      0.37857099074492
  50     0.041857390659524
  51    0.0049845778652132
  52     0.011789982582626
  53      0.08871264507198
  54     -0.58468518458916
  55     -0.21114911818401
  56    -0.042158025966844
  57     0.001995355494952
  58      0.53661338906855
  59      0.33735323594122
  60    -0.0059893239008652
  61    -0.024750984787372
  62     0.077258761754211
 Sym= A
 Ene=    0.7955158569
 Spin= Alpha
 Occup=    0.00000
   1    -0.00041702316519136
   2    0.00044478101352599
   3    -8.4999660563987e-05
   4    0.0010322089602756
   5    0.00012099762633953
   6    -0.00026985900156407
   7    0.00024106892013414
   8     -0.29236526317876
   9    0.0011207619867544
  10    -8.5356803976103e-05
  11       0.2881509395413
  12    -3.5915152017039e-05
  13    0.00072698577732002
  14    -0.00031496508685871
  15    0.00023219354392127
  16    0.00044292760514652
  17    -0.013791082045248
  18    0.0012591129116238
  19    0.00066492885549744
  20     -0.20557528170339
  21    2.9508727786289e-05
  22    0.0059393213056842
  23    -0.0018012097243203
  24    0.0018705280839597
  25    0.0013208319327302
  26     -0.79811143698615
  27    -0.00056786911194645
  28    -0.0018773154614905
  29       1.1423578145846
  30     0.001775588768414
  31    -0.00057366395414204
  32    0.00033627803240883
  33     0.005620681012109
  34    -0.0081243715236804
  35    -0.0016484131580399
  36    -0.0020274547601579
  37      0.57825919177892
  38    0.0035163309936141
  39    0.0068307190546891
  40      -1.0503674448723
  41     0.001470370996998
  42    -0.0019948713812061
  43    -0.00015718420914641
  44    3.9046637060826e-05
  45    0.0014714049340317
  46    -0.0020383885845511
  47    0.0010035778173967
  48     0.041997139452287
  49    -0.001252994144511
  50    -0.0017843194164937
  51       0.3389964749829
  52    1.5243231595371e-05
  53    -0.0015484108946157
  54    0.0039167324249682
  55     0.000115430046954
  56    0.0014291540028074
  57      0.34180988142195
  58    -0.0011327001655552
  59    -0.0018042544975891
  60      -0.4498242391775
  61    0.0014737257195024
  62    -0.0027721382107644
 Sym= A
 Ene=    0.8248627799
 Spin= Alpha
 Occup=   -0.00000
   1    -0.034549511505893
   2     0.029568120516873
   3     0.023361695955223
   4     -0.11946722506165
   5    -0.042392927442395
   6      0.25751453643703
   7    -0.066087700501728
   8     0.010413703438568
   9     -0.58360067168718
  10    -0.017066568629874
  11    -0.013074384725125
  12    -0.0095806829887659
  13     0.077267456641915
  14      0.16388977992171
  15      -0.1973985598065
  16     -0.16579561169872
  17    0.0024266581531583
  18      0.18115660699525
  19     -0.22323761713803
  20    0.00057079290602649
  21     0.010645675975529
  22     -0.22311236581148
  23     -0.30247472355044
  24        0.180212748729
  25     -0.37838297867599
  26    -0.0032317545949169
  27    -0.057287809757303
  28      0.57501381095186
  29    0.0049166731608822
  30      0.37167917110098
  31      0.10630316443736
  32     -0.01749443046953
  33      -0.3607322246675
  34      0.73133233344898
  35      0.22818658328652
  36     -0.22250780586138
  37    0.0016103250261363
  38     -0.31400171784672
  39      0.41144638172302
  40    -0.003218736341211
  41     -0.46750824834803
  42     -0.12016857610272
  43    -0.0037784274658572
  44    -0.083310193105965
  45    -0.099515719486767
  46     -0.15594032143004
  47     -0.16735298504377
  48    -6.7958937362976e-05
  49      0.25747342710773
  50     0.071637304939601
  51     0.001178518063141
  52    -0.002619466225316
  53     -0.14377137637034
  54      0.14892915378033
  55      0.26369742477628
  56      0.04532178168352
  57    0.0030781452114931
  58     -0.45309727815609
  59     -0.19692918983481
  60    -0.0032326982111028
  61      0.19010779549563
  62     -0.14195330165584
 Sym= A
 Ene=    0.8344389255
 Spin= Alpha
 Occup=   -0.00000
   1      0.19097704001473
   2    -0.0013195885455063
   3    -0.0024677719314001
   4      0.17313066959952
   5     -0.46751181657486
   6      0.22126525829368
   7    -0.049648169938022
   8    0.0035778157845491
   9     -0.32914805659857
  10    -0.011353298309087
  11    -0.0043944498980773
  12     0.019005957536828
  13     0.059117261344277
  14      0.51424546493273
  15     -0.14726396246963
  16      0.15802211923824
  17    0.00084451263369734
  18     -0.15706035565548
  19     -0.22067843595465
  20    0.00067581727066273
  21    -0.027973897885531
  22       0.8169088250441
  23     -0.99966542395386
  24     -0.39901964016175
  25      0.27243067874562
  26    0.0011946895510539
  27      0.62146440537294
  28    0.0013632631969903
  29    -0.0016598517584714
  30      0.22138533730229
  31      0.28975180041078
  32    -0.024185542506114
  33      0.83870054507395
  34      -1.2085383185911
  35      0.51555296273034
  36     -0.35957710745755
  37    -0.0022392802375895
  38     -0.57783818718036
  39      0.27588597743074
  40    0.0022254723275345
  41      0.10863057244975
  42      0.22817342958812
  43     0.019484332350992
  44      0.05190579430307
  45      0.51284040604644
  46     0.087905774503283
  47     -0.20757845161362
  48    0.0001733881678177
  49      0.14530355812112
  50      0.18342104051065
  51    0.00095538212976839
  52    -0.0080005284983397
  53      0.20685602486579
  54     -0.44541600134714
  55     -0.15495308802533
  56     0.032765252687071
  57    0.00027256743622041
  58       0.1786026804825
  59    -0.033360151906289
  60    -0.0016793950561877
  61      0.22530795324212
  62    -0.0095502023522993
 Sym= A
 Ene=    0.9163514474
 Spin= Alpha
 Occup=   -0.00000
   1      0.24342761981364
   2     0.065742122735672
   3    -0.0073233085884125
   4      0.17520273940443
   5     0.064227065371872
   6     0.064783417442246
   7     0.066486631519943
   8    0.0074208442218354
   9      0.10429680456642
  10      0.19293742898879
  11     -0.00841678446602
  12    -0.0041249183776284
  13       0.2205910660576
  14      0.20651885536288
  15    -0.053061531522938
  16      0.13294081160884
  17    0.0021915718762599
  18      0.52232570182608
  19    -0.072251520196797
  20    -0.00029072281136103
  21     0.051496126318653
  22      0.52702467985379
  23      -2.1869079372558
  24     -0.73192066584242
  25    -0.026927726867396
  26    -0.00028845157640368
  27         0.10673022771
  28     -0.55420322820409
  29    -6.1740601801428e-05
  30      0.32389371641235
  31     -0.18022374766033
  32    -0.052091053257753
  33     -0.47608365886816
  34       2.1107647452304
  35     -0.70929168168002
  36    -0.056211780255026
  37    -0.0040531435799307
  38     0.040748928476421
  39     -0.48413637338235
  40    0.0042648331292561
  41     -0.28983228607112
  42      0.14215860524099
  43    0.0063810069858929
  44     -0.24710267991786
  45     -0.13950361641094
  46     -0.07012547745415
  47      0.12771658506262
  48    0.0021712575418488
  49       0.5069702040716
  50    -0.044924187021188
  51    0.0011917011103481
  52    0.0092788085438208
  53     -0.22240987437321
  54      -0.0355372505349
  55    0.0023884421050487
  56      0.12723826913474
  57    0.0082980010383863
  58      0.15023935528483
  59     0.091248778375072
  60    -0.011194361363202
  61     -0.22947378725891
  62    -0.028883737359514
 Sym= A
 Ene=    0.9257805466
 Spin= Alpha
 Occup=   -0.00000
   1    -0.011784292460299
   2    0.0011378518114457
   3    -0.00058833296970799
   4    0.0060013782448959
   5    -0.004822251503784
   6    -0.0062591365224218
   7    0.0060257267900381
   8      0.45561392936856
   9    0.0064549848126073
  10      -0.0170257218995
  11     -0.53609351925539
  12    0.00028955098594583
  13    -0.0043147214072172
  14    -0.0050560842318152
  15    -8.8915257329232e-05
  16    -0.0030153081597412
  17      0.09809661462116
  18    -0.0074498882312536
  19     0.010683611012292
  20     0.039712678143684
  21    -0.00089245793328753
  22    -0.0026859531585218
  23      0.04168110624937
  24       0.0125518295853
  25    -0.00015784898432131
  26     0.011563155610165
  27    -0.0034679024040251
  28     0.010639416980237
  29     -0.10029515661996
  30    -0.0086090810139943
  31    0.0044895059886557
  32     0.001622467549755
  33     0.012519631466603
  34    -0.035295832192129
  35    0.0061830393724593
  36    0.00087944163728772
  37     -0.35087325611071
  38     0.015398362123911
  39     0.010290300625509
  40      0.46678614987179
  41     0.010387807431887
  42    -0.0077525817155028
  43    0.00035684166512304
  44    -0.0025889767082235
  45    4.0643410827039e-05
  46    -0.005594123446954
  47     0.012141781710062
  48      0.26612200163477
  49    -0.0029694292259285
  50    -0.016605450613809
  51    -0.067564154101274
  52    0.00044416650967258
  53    -0.0054684485352425
  54    0.0098625519898513
  55    -0.0075315846383705
  56     0.007172641704408
  57      0.74955386027723
  58    0.0032888695442836
  59    -0.011560299096254
  60     -0.92266347054096
  61    0.0054080290905838
  62    0.00066283597765189
 Sym= A
 Ene=    0.9510518432
 Spin= Alpha
 Occup=    0.00000
   1     0.072764835643515
   2    -0.013237448836081
   3    0.0014435047863031
   4     0.015612312669886
   5    -0.028380312648854
   6    0.0066148047711845
   7    -0.012047916157648
   8    0.0018137267952801
   9    0.0066638245208984
  10     0.034220230188326
  11    -0.004613642222808
  12    0.0018454074266118
  13     0.017761009007545
  14      0.11087739995102
  15     0.014114681012177
  16    -0.031646083867713
  17    -0.010025990696986
  18    0.00058465307777393
  19     0.063453984548275
  20      0.01345494057013
  21     0.012097110538504
  22    -0.0086944254322898
  23     -0.25034407020062
  24     -0.16693730719297
  25      0.12691469979384
  26    0.00082158300537214
  27     0.046578777281676
  28     -0.35866242853218
  29    -0.010265179743137
  30     0.047104605369405
  31     -0.16594584598868
  32     -0.02715806002047
  33     -0.15477979643514
  34     0.069300103218471
  35     -0.10301914523447
  36      0.04722485959975
  37     -0.00607288106853
  38     -0.26387003890635
  39    -0.079035450333985
  40     0.021213260045067
  41     -0.18480166528239
  42      0.16844860030125
  43    -0.026379581833608
  44      0.28775443819742
  45     0.031310212133442
  46      0.34733880731148
  47     -0.52779444828538
  48     0.019321864446506
  49     -0.36140609904568
  50      0.61980846126572
  51    -0.027916516012283
  52    -0.023959415062021
  53      0.35455925076138
  54     -0.18213213468713
  55      0.36656698698302
  56      -0.4945858185162
  57     0.020768998282901
  58     -0.21436805785167
  59      0.70255337626738
  60    -0.013007028343001
  61     -0.16413679097566
  62     -0.21807225776702
 Sym= A
 Ene=    0.9554980889
 Spin= Alpha
 Occup=   -0.00000
   1    -0.0085824180725858
   2    -0.0010469655991117
   3    -0.00092062389782023
   4     0.013267213165094
   5    -0.0085250520781326
   6    -0.008945135419111
   7     0.011868560034895
   8      0.57841773826185
   9    0.0095164985500969
  10    -0.022816327040742
  11     -0.55728118825927
  12    0.00011204755948706
  13    0.0017144612360642
  14    0.0022607855819021
  15    -0.0040427784000138
  16     0.002060620090872
  17      0.53836733497031
  18    0.00087433131225682
  19    0.0070856276671031
  20     -0.59881557847084
  21    -0.00015878779710422
  22    0.00094775984643924
  23      0.00839551816474
  24    -0.0019562005162907
  25    0.0038502945976481
  26     -0.28130122340871
  27      0.00302702211786
  28    -0.0063519632057861
  29       0.7242834856372
  30    -0.0052716905931287
  31    -0.00045000383487687
  32    -0.00014579638452293
  33    0.0012991381972014
  34    -0.014139952832258
  35    -0.0024745706600487
  36    0.0010932283197976
  37      0.19821643532871
  38    0.0038607396520233
  39     0.002868801869568
  40     -0.64947294605942
  41    -0.00039731522320352
  42    0.00046688453503698
  43    -0.00045470189401912
  44    0.0065058327330791
  45    0.00092853518442564
  46    0.0079786075532174
  47    -0.010770407073876
  48     -0.47741736042572
  49     -0.01212449032054
  50     0.010866030814123
  51      0.65989259415328
  52    -0.0005349018093297
  53    0.0082672836160026
  54    -0.0019351461812898
  55    0.0051730861438375
  56    -0.010938163877438
  57     -0.22264985386324
  58    -0.0018209544728497
  59     0.015980391676943
  60      0.10274234077912
  61    -0.0052763169253713
  62    -0.0043593511174259
 Sym= A
 Ene=    0.9722228063
 Spin= Alpha
 Occup=   -0.00000
   1     0.081074444851192
   2      0.20060756471561
   3     0.020110893702203
   4     -0.28267681845606
   5      0.11323715623194
   6      0.28912829436907
   7     -0.42736673784472
   8    0.0071762594414202
   9     -0.13890352145729
  10      0.48539849824327
  11    -0.0057750175649063
  12     0.029724595170428
  13     -0.32126052636709
  14    -0.098563376629635
  15      0.33210670731899
  16     -0.62971713290821
  17    0.0099831878620403
  18     -0.48063069221582
  19      0.80892871968451
  20    -0.011673886814188
  21      0.02129826044053
  22       0.1379641825663
  23      0.41412180408017
  24    -0.0056478838578847
  25     0.059340520577178
  26    -0.0026532898993362
  27       -0.254253240947
  28     0.096460172364193
  29    0.0087889773755363
  30      0.16718376143646
  31      -0.1217120648588
  32    -0.0040934118748908
  33      0.10435524734402
  34     -0.20701186413887
  35     -0.10863812344397
  36      0.13918863880445
  37    0.0001234195532549
  38      0.22730226338377
  39     -0.24467407033481
  40    -0.0063002231343359
  41    -0.0073010464779892
  42       0.1156452348539
  43    0.0069586583751215
  44     -0.07833294610648
  45    0.0029228694638073
  46    -0.054727707752385
  47     -0.09754487501389
  48    -0.0075923123865245
  49    -0.073274769136467
  50      0.11592693775338
  51     0.012171424315892
  52    -0.0043638402948821
  53     -0.04331323064494
  54     0.044253866680574
  55     -0.20535906774673
  56     0.080708910453065
  57    0.0017342901396487
  58      0.19636984687992
  59     -0.10804476119119
  60    -0.005419525874404
  61     -0.17139096606143
  62      0.13908164823944
 Sym= A
 Ene=    0.9782750505
 Spin= Alpha
 Occup=   -0.00000
   1        -0.24606966599
   2     0.085185460648784
   3     -0.01205176726903
   4     0.072692960599045
   5     -0.11205832273224
   6      0.18049267296691
   7     0.046469533630448
   8    0.0021963804509206
   9     -0.26289526544367
  10     -0.12043044718141
  11    -0.0041706345553024
  12    0.0025219769276265
  13     0.018782346469709
  14     0.038710446887997
  15     -0.02581265917884
  16      0.28471314961128
  17    -0.0041916600377206
  18     0.054374570743338
  19     -0.34653899001704
  20    0.0056489215322875
  21    -0.012647865010113
  22     -0.23727137150582
  23      0.64204587376464
  24      0.15982781342994
  25     0.027297985345274
  26    -0.0017925185894002
  27     0.074057477673743
  28      0.15941791152426
  29     0.000304290402695
  30     0.043656079110834
  31    -0.022057944331363
  32    -0.0034218945293845
  33     -0.19360338617403
  34     -0.39969966025435
  35    0.00011177110740403
  36    -0.073726628863695
  37      0.00137875302249
  38      0.24255994299253
  39      0.40290320409876
  40    0.0021918234833016
  41    -0.035177496196413
  42     -0.22108975452043
  43     0.018994560573409
  44     -0.12085093301438
  45      0.48574398407826
  46     -0.15676534205315
  47     -0.59573748191557
  48     0.006313800671536
  49     -0.22387241625647
  50      0.68782527411769
  51    -0.011283167377885
  52    -0.022221564685421
  53    0.0095993798632994
  54     -0.14500340407987
  55     -0.66919214913701
  56      0.14775413981862
  57    0.00023722932497938
  58      0.73776266410827
  59     -0.19894856610531
  60    0.0045800921549759
  61     -0.51018093461548
  62      0.37375066660044
 Sym= A
 Ene=     1.005623088
 Spin= Alpha
 Occup=    0.00000
   1     0.041274277920193
   2    -0.033811469460388
   3    0.0014912565225831
   4    0.0039374884293942
   5    0.0051720375803903
   6    -0.059201157425515
   7     0.018089401883867
   8      0.48954794421823
   9     0.061500816674215
  10    -0.025321218350834
  11     -0.71907260272839
  12    -0.0018798793535494
  13     0.014564343302168
  14    -0.046327117026091
  15    -0.014727736291177
  16    -0.043657133411158
  17     -0.33347233011876
  18    -0.023697408711891
  19     0.048441263251733
  20      0.50558947629379
  21    -8.1663190769452e-05
  22    0.0055532485901092
  23     0.062806559519272
  24    0.0024705717156804
  25    -0.0058699606062126
  26     -0.29397810252082
  27     0.029484795955288
  28     0.050580134780633
  29      0.29186335811077
  30    0.0040569257667142
  31      0.02478004336308
  32    0.00041383291561931
  33     0.011053246699109
  34    -0.083886475420002
  35      0.01267561488816
  36     0.005117600310293
  37      0.21500928218207
  38     0.015348651321079
  39     0.015567633519186
  40    -0.058035357862164
  41    -0.0078235387333313
  42    0.0039548150171974
  43    0.00036642051224786
  44    -0.0042205788797256
  45     0.014767288486298
  46    -0.007961025267092
  47    -0.0096286867100381
  48      0.60373129119839
  49    -0.0056590174863734
  50     0.015932599993155
  51      -1.0035424536213
  52    3.476614816561e-05
  53    -0.005359659048965
  54    -0.0025785135416858
  55    -0.015294779990224
  56     0.012855422529273
  57     -0.32398100350938
  58     0.013204449912653
  59     -0.02703343472743
  60      0.72927197597158
  61    -0.0017183798462849
  62     0.014519050684893
 Sym= A
 Ene=     1.008465367
 Spin= Alpha
 Occup=   -0.00000
   1       0.6044320440814
   2     -0.46975924943256
   3     0.024287712583804
   4    -0.013367863510144
   5      0.11343689824463
   6     -0.74304882787178
   7      0.21218542966725
   8    -0.040798983536061
   9      0.73489291168326
  10     -0.21405148307258
  11     0.058855282664292
  12    -0.030871908960315
  13      0.23981921801277
  14     -0.58573758755508
  15     -0.21875068841104
  16     -0.45833118379827
  17     0.022497198895884
  18     -0.22623990630852
  19      0.40816980323904
  20    -0.035432654663545
  21    -0.0025966661815107
  22    -0.018257080429195
  23      0.83711813546247
  24       0.0552018089728
  25    -0.059492914242084
  26     0.024105421384487
  27      0.44885665418552
  28      0.57206250848215
  29    -0.026476924661234
  30     0.092411158961731
  31      0.25143409501715
  32    0.0034609310479152
  33     0.031513521839874
  34      -1.0419681591889
  35      0.17313230822852
  36     0.015853653780609
  37    -0.016531885079735
  38      0.11165879175759
  39      0.39767472559205
  40    0.0063155917208051
  41     -0.14479095433313
  42    -0.027197961332039
  43    0.00027066111281846
  44    -0.027536198295059
  45      0.32523060005047
  46    -0.087506942812907
  47     -0.25223164651952
  48    -0.046196465810636
  49     -0.14153999086868
  50      0.36787316615122
  51     0.076165577259983
  52    -0.0031814975813272
  53    -0.050980101650446
  54    -0.036534794834563
  55     -0.20128706253893
  56      0.10340642384151
  57     0.025331887983022
  58      0.20961952627421
  59     -0.25942689173919
  60    -0.056027757306795
  61    -0.045366365681432
  62      0.12354685117023
 Sym= A
 Ene=     1.062430601
 Spin= Alpha
 Occup=   -0.00000
   1    0.0084385609200965
   2     -0.20156221738024
   3     0.017359596893361
   4     -0.22995040762029
   5      0.78402546986514
   6    -0.010234382859151
   7      0.10807662008372
   8    0.0020529041929805
   9      0.10647542563735
  10     -0.13793666445078
  11    -0.0059990525592088
  12    0.0094671334644748
  13     -0.10402155229111
  14      0.56137652346976
  15     -0.22541561970121
  16       -0.173718443162
  17    -0.0085752698635325
  18      0.82451321159383
  19      0.43939813011154
  20     0.013131379129769
  21     0.015521745900912
  22     -0.38331218122517
  23       1.2870431212106
  24     0.051890814911245
  25      0.68277171965994
  26    0.0010836627144082
  27      0.36429742707031
  28      -2.6823052206006
  29    -0.0038723839225446
  30       0.1642451398274
  31      -1.8204302875262
  32     0.018474148153145
  33     -0.38167680765505
  34       1.0321083180481
  35    -0.0068691257904004
  36     -0.79488890909099
  37    0.0012243912066699
  38     -0.20966639202958
  39        3.049056052382
  40    -0.0034907862835031
  41      0.13091781458709
  42      -1.9932686066822
  43      0.01627485358801
  44     -0.13155112755078
  45      0.66113168701227
  46       0.1953914155503
  47      0.17488975195588
  48    -0.0028734030788996
  49     -0.91217304497841
  50     -0.57436755120488
  51    0.0066040427574475
  52       0.0119569382229
  53     -0.20646681317051
  54       0.8708069737189
  55    -0.064524404512127
  56      -0.1579279574544
  57    -0.0019998840654384
  58    -0.074150559823002
  59      0.25816195429372
  60    -0.00099282631849783
  61    -0.077043048458504
  62     -0.22223442616135
 Sym= A
 Ene=     1.078071527
 Spin= Alpha
 Occup=   -0.00000
   1    -0.0061896588443288
   2    0.0044405917203884
   3    -0.00049611767376749
   4    0.0050409676924055
   5    -0.0087541842173979
   6    -0.00011086175495475
   7    -0.00040108191298676
   8      0.27463868621796
   9    0.00064498718888209
  10    -0.0045155392846219
  11     -0.65465375771796
  12    0.00022827062331773
  13    -0.0016743442197947
  14    -0.0056463659874948
  15     0.002040716384796
  16    -0.00085019724057596
  17     -0.78037986538136
  18    -0.0095789297056027
  19    0.0025080669906003
  20       1.2176291989225
  21    -0.00015577857900888
  22     0.009726194002947
  23    -0.011559194070437
  24    -0.00032569694622218
  25    -0.0090697834511772
  26      0.10765790243208
  27    -0.004808298829301
  28     0.033660448253579
  29     -0.35021402511461
  30    -0.0030824343416807
  31     0.023193278349396
  32    -0.00010446819324309
  33    0.0075516191255687
  34    -0.017849053476344
  35    -0.0018629666857721
  36    0.0077219906068075
  37      0.13136124612557
  38     0.010496770751805
  39    -0.027795556203268
  40     -0.36606008671897
  41    -0.0016934593299032
  42     0.019145684907036
  43    -5.8413285091442e-06
  44    0.00038827458684709
  45    -0.0059015502298154
  46    -0.00068784183240725
  47    -0.001501392661933
  48     -0.52370389521213
  49    0.0048839321561663
  50    0.00077649878391858
  51      0.89123179893569
  52    -0.00031136454575724
  53    0.0029253542210343
  54    -0.0033924329633242
  55    -8.4128879114339e-05
  56    -0.0024093720339561
  57      0.09151505833712
  58    0.0010213804318448
  59    0.0065911792097125
  60     -0.37831191647481
  61    -0.0029240612283593
  62    -0.0018935392046916
 Sym= A
 Ene=     1.087156509
 Spin= Alpha
 Occup=    0.00000
   1    -0.044435439146366
   2      0.30427674328308
   3    -0.0098102075635932
   4     0.084335705749596
   5     -0.65558130158025
   6     -0.15954091569857
   7     -0.25395116537547
   8    -0.00090384881737174
   9     0.086059349466817
  10      0.25856862009471
  11    0.0021667968059275
  12    -0.0051800162567668
  13     -0.16523880225231
  14    -0.0019173600208388
  15     0.071393091748368
  16       0.0216087972518
  17    0.0028579257213916
  18     -0.66730574195836
  19     -0.44633953367277
  20    -0.004381441956688
  21    -0.011942116802856
  22      0.43769901485796
  23      0.43931044995036
  24    -0.073911188505578
  25     -0.79254309614735
  26    -0.00052031554180813
  27      0.87515999834831
  28       2.2077078112653
  29    0.0015502762653292
  30     -0.27866013002225
  31       1.6306506209135
  32     0.010438639226813
  33     -0.13139642079891
  34     -0.75276895436364
  35     -0.10702159974037
  36     -0.59874480595393
  37    -0.00053486760395159
  38       1.2085655906466
  39       1.4948631095909
  40    0.0012629778209456
  41      0.20713546535891
  42      -1.1343567308164
  43     0.017618527872543
  44     0.096277900427529
  45     -0.18621749293376
  46      0.05008512491403
  47      0.10528253381912
  48    0.0028147181729408
  49     -0.52577133508118
  50      -0.7154891319357
  51    -0.0040927679620728
  52    -0.0015641592917029
  53    -0.0049794184357086
  54      0.67325193001686
  55     -0.19222382161044
  56     -0.33945559493738
  57    -0.0013210586098407
  58     0.078893603088178
  59      0.56886790622935
  60    0.0023233335532925
  61     -0.12239986866775
  62     -0.35799839210783
 Sym= A
 Ene=     1.115791275
 Spin= Alpha
 Occup=   -0.00000
   1    -0.023536549651002
   2      0.23752131698931
   3    -0.0095630659531136
   4      0.16550230947685
   5     -0.65718145411926
   6    -0.0015280082442602
   7     -0.10752429141755
   8    0.0041210871453014
   9    -0.074557648993509
  10     0.085666550447447
  11    -0.0062608892406612
  12    -0.0033788406876749
  13    -0.0070755134310099
  14      0.32818278901019
  15      0.19634761903724
  16     0.049596965666046
  17    -0.0026721326656599
  18      -0.5311435388721
  19     -0.19592273985397
  20    0.0047252249339034
  21    -0.0013272270588942
  22      -0.3612147094344
  23      0.88782311462018
  24     -0.24561259420319
  25     0.043818756278219
  26    -0.00090085167322413
  27      0.71130726699928
  28     0.049677588701602
  29    0.0010734809329645
  30      -0.1010701599292
  31     0.035551059004582
  32    0.0019583242235364
  33     -0.60093440232837
  34     0.067411875780548
  35     -0.21353802132006
  36     -0.20811421502371
  37    0.00084679071784011
  38       0.2844344072631
  39       0.4145975422016
  40    -0.0025445306596378
  41      0.32585473889694
  42     -0.47545671491381
  43    -0.038110206804667
  44      0.34933724378221
  45      -0.2589046948699
  46    -0.021098561179673
  47     -0.27021333877099
  48    -0.0008919697661093
  49    -0.013895261829736
  50      0.79797027868154
  51    0.0022809281720553
  52     0.051649556345046
  53     -0.42899741824636
  54      0.17790908572114
  55    -0.061274765767547
  56    -0.0095898642936967
  57    -0.00042006793016167
  58      0.34584036301564
  59     -0.63429820790124
  60    -0.00042648326982385
  61      0.93236161402276
  62     -0.55595557283244
 Sym= A
 Ene=     1.176756506
 Spin= Alpha
 Occup=   -0.00000
   1     -0.15800094139091
   2      0.47010037014619
   3    -0.0077215121903652
   4     0.077617431482076
   5     -0.34585127893354
   6     -0.14260537021729
   7     -0.24185154477989
   8    0.00083066701804654
   9      0.17456591278298
  10      0.33849940437097
  11     -0.00113919898992
  12    -0.0046680202939275
  13     -0.13986260572104
  14       0.6005255681589
  15    -0.023020708933752
  16     0.023258805908814
  17    -0.00084740304790581
  18     0.035035862872698
  19     -0.28776884961973
  20    0.0011543462944088
  21    -0.0019920077727729
  22     -0.24285579364761
  23      0.69251440401932
  24     -0.23786829658118
  25    -0.037586309325292
  26    6.5856843248043e-05
  27       1.1735012480669
  28     -0.52724040990732
  29    -0.0003305381296441
  30     -0.20675094944404
  31     -0.19407186312384
  32    -0.00084497721950744
  33     0.001703979898606
  34      -1.0814802697015
  35      0.03227249810193
  36     -0.38712840627773
  37    0.00066005880317032
  38     -0.53714235436218
  39       1.8713399116742
  40    -0.00029070803558943
  41      0.17119422912412
  42      -1.2535039044469
  43    -0.029553294691274
  44        0.229968831473
  45     -0.15352492346947
  46      0.36472834254204
  47    -0.053838296968748
  48    -0.0028065678710149
  49       -1.396088200113
  50      0.27809196590714
  51    0.0019738289187041
  52    -0.010315815269743
  53      0.26437241869879
  54     0.048784123202969
  55       0.3979545000212
  56       0.7637528769156
  57    0.0028422463993679
  58     -0.80263876610978
  59      -1.5496722744748
  60    -0.0020085078280655
  61     -0.45901105184949
  62       1.4701383359356
 Sym= A
 Ene=      1.19761254
 Spin= Alpha
 Occup=    0.00000
   1      0.63693697733008
   2      -1.4467182274134
   3     0.018795651345468
   4     -0.26958663640056
   5     -0.31931656404703
   6       0.4077490890823
   7      0.73234501219792
   8    0.0014378473140563
   9     -0.91736320858466
  10      -1.3760190736898
  11    -0.0018910834655211
  12     0.022031159141576
  13     -0.19512130859619
  14      0.32536642614239
  15      0.41576153858585
  16    0.0092963294983918
  17    -0.0005977689744309
  18      -1.5546975256115
  19      0.02754917125474
  20    0.00099577579462647
  21    0.0016827973084669
  22     -0.33883133284412
  23       1.6190019765887
  24    -0.020781336651007
  25     -0.32257947658424
  26    -0.0003171114944962
  27     -0.22874934861697
  28       1.6324175878642
  29    0.00046104836689915
  30      -0.1328139924251
  31       1.0104544236429
  32    0.00085482281581448
  33      0.17311271982144
  34        -0.86053118734
  35      -0.1751940661945
  36      -0.1880171336191
  37    0.00040736373059089
  38      0.86700137376622
  39     0.043659949344069
  40    -0.00062590694709925
  41      0.28700196984698
  42     -0.25398900624578
  43    -0.0076559806716131
  44      0.26396885562028
  45     -0.67893923037952
  46      0.05730714237082
  47      0.01694750849871
  48    -0.001081692706888
  49     -0.25341433625484
  50      -0.1789653451542
  51    0.0009472835651614
  52     -0.00290331694609
  53      0.16756654426576
  54     0.011202521409617
  55     0.042024137911191
  56      0.12462595553583
  57    0.0010242900914475
  58     -0.13268310957186
  59     -0.29557061211605
  60    -0.00077548685896506
  61    -0.089799036113016
  62      0.27030881670084
 Sym= A
 Ene=     1.247822007
 Spin= Alpha
 Occup=   -0.00000
   1     -0.20486397645576
   2     -0.16716796937244
   3    -0.000437689228962
   4     -0.55415233929197
   5       1.2472588433366
   6    -0.052808824976115
   7      0.10409437186705
   8    -0.0031436045162907
   9       0.3992227592147
  10     -0.19873288404997
  11    0.0038499708555265
  12     0.011255283382454
  13     -0.42657501656108
  14      0.46376102147757
  15     -0.18312773836204
  16     0.047046747228879
  17    0.0009348475487149
  18      0.70570966901656
  19    -0.071502086953838
  20    -0.0015593220209171
  21    1.6880404791782e-05
  22      0.10070377015366
  23        1.490874317609
  24     -0.08348945801778
  25     -0.16301724503294
  26    0.0008483880870729
  27        1.485882495046
  28    -0.017799166716381
  29    -0.0012953278807005
  30     -0.23546265056672
  31     0.039334409582884
  32    -0.0059358574521891
  33      0.96691738946421
  34      -3.8711150706001
  35     -0.25398285752476
  36     0.059451121474758
  37    -0.00070677553061619
  38      0.88199173954468
  39       1.9344142155733
  40     0.001246848099775
  41     -0.61483818550278
  42     0.088936299754757
  43    -0.0069872371050575
  44    -0.0023571987978174
  45    -0.030613968088965
  46      0.50689152835299
  47    -0.020529760383894
  48    0.0012629381353055
  49      -2.3855672488057
  50    -0.038590522440974
  51    -0.0011618008079069
  52     0.031704627373103
  53     -0.58466912249086
  54       2.1404372960833
  55    -0.054485491683825
  56     0.087272627822335
  57    -0.001289539522267
  58     -0.36200088893845
  59     -0.81418291042941
  60    0.00093398124666177
  61      0.29972048086121
  62     -0.37128958481465
 Sym= A
 Ene=      1.25629864
 Spin= Alpha
 Occup=   -0.00000
   1      0.19288164397481
   2     -0.50132330850753
   3      0.01754925459122
   4     -0.20779207805673
   5       1.5730876350427
   6      0.15645880697131
   7     0.038289385375921
   8    -0.0011049890366814
   9      0.10810021063069
  10      0.31256691524063
  11    0.0014275131286928
  12     0.005759549377445
  13      0.12200664628264
  14    0.0082373295210668
  15       -0.360515219428
  16     -0.15777342815557
  17    0.00026570018756152
  18       1.9024730309525
  19      0.53391113064761
  20    -0.00052311197241111
  21    -0.0054698648477636
  22       1.1005714138941
  23      -5.0795953028667
  24      0.14568526127213
  25    -0.0088548723649225
  26    0.00033420751726973
  27      -1.7554572405881
  28      -2.1715976758548
  29    -0.00056136048031113
  30     -0.78095077836862
  31      0.29039598359719
  32    0.0035967385478552
  33     -0.57082741779691
  34       3.7891619264249
  35     0.081463123067327
  36     0.073183374639198
  37    -0.00011338074165889
  38      -2.2130429782578
  39      -1.0404041847018
  40    0.00052038959969122
  41      0.35932042232112
  42      -0.2737795778893
  43    -0.0054257687849266
  44     -0.38255349563317
  45      0.38587396214051
  46    -0.012952895094563
  47     -0.21401187807964
  48    -2.6642664329976e-05
  49      0.31373191838912
  50      0.64138780316996
  51    -0.00031969980517744
  52    0.0014069522313169
  53     -0.44770136354296
  54      0.19854422716188
  55      0.16334854029574
  56     0.027324045578822
  57    0.00011296520871344
  58     -0.28139792724405
  59    -0.011103842878506
  60    0.00011091720319005
  61     -0.11365008994112
  62      0.19732432045515
 Sym= A
 Ene=     1.391597122
 Spin= Alpha
 Occup=   -0.00000
   1      0.10084931181863
   2      0.32255303508949
   3    -0.0025966985221404
   4      0.28318064053751
   5     -0.83982304672536
   6    0.0056467455780837
   7    -0.087304154502928
   8    0.00059109969158361
   9     -0.18060926184107
  10       0.1941751731314
  11    -0.00030547573720589
  12    -0.0019507192607404
  13    -0.040374580547166
  14      0.23248767808603
  15     0.020757581417826
  16     0.044117452202847
  17    -4.4620531141385e-05
  18     -0.38848482376824
  19     -0.29972930059628
  20    9.5417903621383e-05
  21    -0.015119764678031
  22      -1.0033636995322
  23       2.6031245223778
  24     -0.29635252046587
  25    -0.082109315275444
  26    -0.00019122061303072
  27        1.242603435398
  28      0.37603719773615
  29    0.00013835612990036
  30    -0.074412052777151
  31     -0.21931971487992
  32     0.026241553009881
  33       1.1419543741367
  34      -3.8527830371275
  35    0.00010516996360388
  36     -0.12485258436403
  37    -0.00012974483091789
  38     -0.19464724169468
  39      0.26926190764031
  40    -0.00019574245328674
  41      0.31288120555284
  42      0.45971627358332
  43    -0.0066058881645573
  44     -0.52051270813735
  45        1.307745185585
  46     -0.19056061841513
  47      -0.1556732915105
  48    0.00044282724080827
  49      0.24351444204468
  50      0.44358819319997
  51    7.4959719505032e-05
  52    -0.0016778971081893
  53      -1.0348395231834
  54       1.1882014244511
  55      0.23969120035622
  56     -0.19871713068518
  57    -0.00051765575411677
  58     -0.48058229555683
  59      0.78690419253009
  60    0.00010514697559979
  61     -0.39704417211604
  62     -0.48435631749759
 Sym= A
 Ene=     1.400971096
 Spin= Alpha
 Occup=   -0.00000
   1     -0.53496376484115
   2       -0.358984427472
   3      -0.0123068375448
   4     -0.91891586345786
   5      0.76421147786067
   6     -0.27774839417223
   7      0.23710348677142
   8    -0.0022351745992129
   9      0.45793030423839
  10       -1.050503556495
  11     0.002132813405419
  12    0.0007617223097884
  13     -0.66586879977162
  14       1.4284345896953
  15      0.21973566031159
  16      0.14260220150829
  17    0.00038778045686924
  18     -0.72253194177945
  19     -0.47280420295895
  20    -0.00060149565322139
  21     0.021986588213808
  22      0.65829288228224
  23      -2.4288238763985
  24     -0.20881896997957
  25     0.048496763036037
  26    0.00065249248717754
  27      0.84952702148026
  28      0.50726806514243
  29    -0.00091723382747575
  30      0.43843559166789
  31      0.52916380691719
  32    0.00087604921048322
  33     -0.42431890623821
  34       0.4313481853218
  35      0.28542535084586
  36      0.03181636794026
  37    -0.0002233316270263
  38       -1.126625316952
  39       -0.672509805285
  40    0.00075933530141397
  41      0.27240631317499
  42      0.11628143115447
  43    -0.0032231708098469
  44     -0.36324714718846
  45      0.83840526618365
  46     -0.10203377629376
  47      -0.1320934026365
  48     0.000220224782088
  49      0.65514882814185
  50      0.54776098030915
  51    -0.00047493188219253
  52    -0.0038913696465632
  53     -0.23648941351603
  54     -0.34006739589917
  55      0.13617767330984
  56    -0.029309829900553
  57    -0.00025257472446437
  58    -0.046305741340484
  59      0.27598620488727
  60    0.00029419965999916
  61     -0.12462094177614
  62     0.079776078923064
 Sym= A
 Ene=     1.455048134
 Spin= Alpha
 Occup=   -0.00000
   1     -0.12940049380009
   2     -0.14976322994437
   3    -0.0067432779912221
   4     -0.18031786279277
   5    -0.082814617068209
   6    0.0072519737647298
   7     0.060712611023213
   8    0.00020836159990594
   9    -0.038816046769951
  10     -0.39019823288762
  11    -0.00091684216159613
  12    -0.016622405009258
  13      0.16277203719056
  14       1.2749949081728
  15      0.42042225930088
  16     0.017079129245708
  17    -7.4822928461912e-05
  18     -0.43230740645452
  19     -0.13599186673251
  20    0.0002368295737301
  21    -0.0061151588137628
  22      0.16642477392909
  23    -0.073259940752179
  24     -0.17542107494485
  25      0.22265261221468
  26    -3.1856135129521e-05
  27       1.2243944468356
  28      -2.4619912059536
  29    0.0004493168773377
  30     -0.75879929331381
  31     -0.63550253641024
  32    -0.010633796381383
  33     0.024515641424581
  34      0.55234354355319
  35      0.19888909241587
  36     -0.20239801675659
  37    0.00013850665558842
  38      -1.2364902078297
  39        2.343268915769
  40    -0.00025988018702106
  41     -0.80513222930079
  42     -0.65899113491794
  43    -0.013399715772984
  44      0.25001472292007
  45       1.0754010661787
  46     -0.43318749133978
  47     0.016569861786378
  48    -0.00032098482129989
  49      0.59873022200351
  50     0.031860425643309
  51    0.00013944778101326
  52    -0.0099813605142753
  53    -0.037947717140573
  54     -0.30235498940831
  55    -0.029081912428151
  56    -0.055375762983913
  57    0.00033442835812862
  58       0.1025660283673
  59      0.42754803796352
  60    -0.00013515043837792
  61     -0.13805329857577
  62     -0.10840929249284
 Sym= A
 Ene=     1.542872171
 Spin= Alpha
 Occup=   -0.00000
   1     -0.22876510204168
   2      0.17304381169825
   3    -0.0082893534886735
   4     -0.66914548212057
   5        2.847299701754
   6    -0.085390286262088
   7    -0.029749795117406
   8    -0.0018570167993185
   9       1.2118833477842
  10      0.55225748571636
  11     0.001933551021426
  12    0.0096927015483898
  13      -0.2875417628951
  14     -0.50434154753747
  15     -0.49723289006273
  16    -0.097615445510428
  17    0.00024654573505494
  18         2.48687189277
  19      0.41355636363658
  20    -0.00045297386755019
  21    -0.014631723576392
  22     -0.50821126421111
  23       1.2732597549656
  24     -0.43114746133465
  25     -0.11590522788867
  26    0.0005766907027203
  27       2.0198294127516
  28      -0.1625418959766
  29    -0.00099453227930159
  30     -0.19163953100073
  31    -0.054593070528136
  32     0.013259732381615
  33      0.53530766833565
  34      -1.0425600336437
  35     -0.44006536677366
  36    -0.090793447349657
  37    -7.8605024799623e-06
  38        2.327715791854
  39     -0.45621663986173
  40    0.00083995987871875
  41      0.22879189938919
  42      0.10395367002327
  43    -0.0018965225349157
  44      0.37256684100661
  45     0.082145805748374
  46     -0.48191251321141
  47    -0.031457704086234
  48    -0.00034918795771224
  49       2.5629941491707
  50      0.13374450183219
  51    -0.00047110034825207
  52    0.0018595786680617
  53      0.77096047726329
  54      -2.8185073662674
  55     -0.10212767315963
  56    -0.055226597002723
  57    0.00037924667969367
  58       1.1798248352981
  59      0.69240940353251
  60    0.00018106084371569
  61      0.13320962758199
  62     -0.17879667393391
 Sym= A
 Ene=     1.793591358
 Spin= Alpha
 Occup=    0.00000
   1      0.54443623908453
   2      0.42913121960004
   3      0.02680307756656
   4      0.62799043726903
   5      -3.3693603835071
   6    -0.067262334519075
   7    -0.082924982683203
   8    0.0025784852176295
   9      -1.4445265887015
  10      0.36605961795064
  11    -0.002858126562253
  12    -0.045258616249373
  13       -1.610668952121
  14       6.2452023551995
  15     -0.02329181380026
  16      0.24981319435067
  17    -0.00032799679391217
  18      0.11969530976357
  19      -2.2116719340303
  20    0.00052170062711394
  21     0.015786549010431
  22     0.027185012170469
  23      -2.5381563149298
  24        0.224484291313
  25      0.13450808567462
  26    -0.00075422167131341
  27       1.6606476975531
  28      -2.4991435703813
  29    0.0015768122405625
  30     -0.17704724892486
  31     -0.63962812162558
  32    0.00035543228475814
  33     -0.11413539237005
  34     -0.41828038807846
  35     -0.11900252341153
  36    -0.077074834591927
  37    0.00010872795241793
  38      -1.7114556362051
  39       1.8036609850461
  40    -0.0011520623632522
  41     -0.28229302919055
  42     -0.52161815384584
  43    -0.029440635511713
  44      -1.0209519010738
  45       4.4454588551632
  46     -0.10968832374955
  47     -0.12515826457325
  48    0.00010524745746734
  49       0.5171182762707
  50       1.4762978232675
  51    0.00064193347772312
  52      0.01125673217028
  53      0.56103742181261
  54      -2.7817778506333
  55     0.043359796972872
  56     0.025890836469955
  57    -7.8248703777594e-06
  58       1.1282092693121
  59     0.065733549780038
  60    -0.00041684387237855
  61      0.28315965935745
  62      0.28297761253641
 Sym= A
 Ene=       1.8278514
 Spin= Alpha
 Occup=    0.00000
   1     -0.33299124179624
   2     -0.21216597208514
   3    -0.018670550165388
   4      -0.3218829813149
   5        1.247314727167
   6     0.011869941754541
   7     0.049975551289751
   8    -0.0016527283723274
   9      0.64812347145816
  10     -0.48740617220319
  11    0.0018751761477591
  12     0.019768162043912
  13      0.98434433580624
  14       -2.958347635685
  15      0.22416578030875
  16     -0.13035914589062
  17    0.0002637903506816
  18     -0.93631005091556
  19      0.98250291170116
  20    -0.0002956882224617
  21    -0.035775440782774
  22       -0.359816202989
  23       4.2983554171482
  24     -0.15817194546002
  25     -0.08896491221626
  26    0.00046541533876025
  27      0.79345234111029
  28       1.0340251901187
  29    -0.0010195086383678
  30      -0.2254237620004
  31      0.12351864465768
  32     0.037488922285526
  33      0.36221654021024
  34      -4.7926862377548
  35     -0.24044512826223
  36     -0.13471237068134
  37    -0.00027946541118276
  38      0.11979380294266
  39       2.0278549545317
  40    0.00059895184573368
  41     0.092902232600947
  42     -0.43196549551761
  43    -0.033612604246106
  44        -1.59363403779
  45       5.5688662247751
  46      0.16247377995409
  47     -0.15711453979706
  48    0.00050379996977324
  49     -0.59477734762511
  50       1.6949447042892
  51    -0.00023067133085783
  52     0.019873167943933
  53      0.79485186420631
  54      -3.0445517437989
  55     0.021592927091416
  56      0.03997088444058
  57    -0.00059455996492332
  58       1.3675964258236
  59     -0.32208657528915
  60     0.000200592315372
  61      0.43454672910271
  62      0.38321806425877
