[Molden Format]
made by pyscf v[2.9.0]
[Atoms] (AU)
H   1   1    -5.23879324882549    -2.08616882439197     0.00000000000000
N   2   7    -5.43454052943856    -0.10999528853256     0.00000000000000
N   3   7    -3.32931381708035     0.96100699256469     0.00000000000000
C   4   6    -1.14187645939906    -0.55479146482818     0.00000000000000
H   5   1    -1.33192432602045    -2.61430003305479     0.00000000000000
C   6   6     1.14187645939906     0.55479146482818     0.00000000000000
H   7   1     1.33192432602045     2.61430003305479     0.00000000000000
N   8   7     3.32931381708035    -0.96100699256469     0.00000000000000
N   9   7     5.43454052943856     0.10999528853256     0.00000000000000
H   10   1     5.23879324882549     2.08616882439197     0.00000000000000
[GTO]
1 0
 s    3 1.00
             18.731137    0.03349459952309
             2.8253937    0.23472694665786
             0.6401217    0.81375731841339
 s    1 1.00
             0.1612778                   1

2 0
 s    6 1.00
              4173.511  0.0018347994430301
              627.4579   0.013994995751693
              142.9021   0.068586979179805
              40.23433    0.23224092950117
              12.82021    0.46906985760962
              4.390437    0.36045489058067
 s    3 1.00
             11.626358   -0.11496102288211
               2.71628   -0.16911803366165
              0.772218     1.1458522280731
 s    1 1.00
             0.2120313                   1
 p    3 1.00
             11.626358   0.067580023248036
               2.71628    0.32390711142648
              0.772218    0.74089525487354
 p    1 1.00
             0.2120313                   1

3 0
 s    6 1.00
              4173.511  0.0018347994430301
              627.4579   0.013994995751693
              142.9021   0.068586979179805
              40.23433    0.23224092950117
              12.82021    0.46906985760962
              4.390437    0.36045489058067
 s    3 1.00
             11.626358   -0.11496102288211
               2.71628   -0.16911803366165
              0.772218     1.1458522280731
 s    1 1.00
             0.2120313                   1
 p    3 1.00
             11.626358   0.067580023248036
               2.71628    0.32390711142648
              0.772218    0.74089525487354
 p    1 1.00
             0.2120313                   1

4 0
 s    6 1.00
             3047.5249  0.0018347001629433
             457.36951    0.01403730124668
             103.94869   0.068842606114048
             29.210155    0.23218442062076
              9.286663    0.46794134155879
              3.163927    0.36231203217765
 s    3 1.00
             7.8682724   -0.11933240861517
             1.8812885   -0.16085421161283
             0.5442493     1.1434564825515
 s    1 1.00
             0.1687144                   1
 p    3 1.00
             7.8682724   0.068999095584993
             1.8812885    0.31642397975315
             0.5442493    0.74430825237435
 p    1 1.00
             0.1687144                   1

5 0
 s    3 1.00
             18.731137    0.03349459952309
             2.8253937    0.23472694665786
             0.6401217    0.81375731841339
 s    1 1.00
             0.1612778                   1

6 0
 s    6 1.00
             3047.5249  0.0018347001629433
             457.36951    0.01403730124668
             103.94869   0.068842606114048
             29.210155    0.23218442062076
              9.286663    0.46794134155879
              3.163927    0.36231203217765
 s    3 1.00
             7.8682724   -0.11933240861517
             1.8812885   -0.16085421161283
             0.5442493     1.1434564825515
 s    1 1.00
             0.1687144                   1
 p    3 1.00
             7.8682724   0.068999095584993
             1.8812885    0.31642397975315
             0.5442493    0.74430825237435
 p    1 1.00
             0.1687144                   1

7 0
 s    3 1.00
             18.731137    0.03349459952309
             2.8253937    0.23472694665786
             0.6401217    0.81375731841339
 s    1 1.00
             0.1612778                   1

8 0
 s    6 1.00
              4173.511  0.0018347994430301
              627.4579   0.013994995751693
              142.9021   0.068586979179805
              40.23433    0.23224092950117
              12.82021    0.46906985760962
              4.390437    0.36045489058067
 s    3 1.00
             11.626358   -0.11496102288211
               2.71628   -0.16911803366165
              0.772218     1.1458522280731
 s    1 1.00
             0.2120313                   1
 p    3 1.00
             11.626358   0.067580023248036
               2.71628    0.32390711142648
              0.772218    0.74089525487354
 p    1 1.00
             0.2120313                   1

9 0
 s    6 1.00
              4173.511  0.0018347994430301
              627.4579   0.013994995751693
              142.9021   0.068586979179805
              40.23433    0.23224092950117
              12.82021    0.46906985760962
              4.390437    0.36045489058067
 s    3 1.00
             11.626358   -0.11496102288211
               2.71628   -0.16911803366165
              0.772218     1.1458522280731
 s    1 1.00
             0.2120313                   1
 p    3 1.00
             11.626358   0.067580023248036
               2.71628    0.32390711142648
              0.772218    0.74089525487354
 p    1 1.00
             0.2120313                   1

10 0
 s    3 1.00
             18.731137    0.03349459952309
             2.8253937    0.23472694665786
             0.6401217    0.81375731841339
 s    1 1.00
             0.1612778                   1

[5d]
[7f]
[9g]

[MO]
 Sym= A
 Ene=    -15.65273051
 Spin= Alpha
 Occup=    2.00000
   1    0.00028222639638563
   2    0.00051751821313391
   3    -0.023949118221928
   4    4.4151138594495e-05
   5    -0.0054736520206529
   6    9.5702171110583e-07
   7    0.00010190143088355
   8    7.1046384832087e-17
   9    -0.0023757997839519
  10    -0.00030703087533619
  11    -9.9591974328722e-17
  12     -0.70399406210577
  13    -0.017084404747638
  14     0.014315616519973
  15    0.00042636260442652
  16    0.0021255608531744
  17    -5.3761131892593e-17
  18    -0.00046212842183801
  19    -0.0048579828443114
  20    1.158324214945e-16
  21    -3.7295835620102e-05
  22    0.00026973623773954
  23    -0.0050812002965401
  24    2.2041311978957e-05
  25    0.00016239169689894
  26    7.8379204333507e-17
  27    0.0044289587796713
  28    -0.0033020153687979
  29    -1.1299757728183e-16
  30    9.8242217174791e-06
  31    -0.00058851862469084
  32    -3.7295832329579e-05
  33    0.00026973616940327
  34    -0.0050811992873981
  35    -2.2041310958181e-05
  36    -0.00016239169140799
  37    2.3860869828584e-17
  38    -0.0044289583827709
  39    0.0033020151545457
  40    2.0761700445226e-18
  41    9.8241747308803e-06
  42    -0.00058851866344715
  43     -0.70399393922085
  44    -0.017084401788204
  45     0.014315614444857
  46    -0.00042636256618206
  47    -0.0021255604963436
  48    -1.5679220395323e-17
  49    0.00046212856679136
  50    0.0048579821841934
  51    2.0845191664873e-17
  52    -0.023949114038213
  53    4.4151144607418e-05
  54    -0.0054736513704187
  55    -9.5700843190976e-07
  56    -0.00010190140892891
  57    -8.0954149266062e-18
  58    0.0023757994871717
  59    0.00030703088954723
  60    1.2843115078536e-18
  61    0.00028222635314232
  62    0.00051751814404134
 Sym= A
 Ene=    -15.65272618
 Spin= Alpha
 Occup=    2.00000
   1    -0.00024771592535472
   2    -0.00039585798764738
   3     0.023948491028395
   4    3.4015022086941e-05
   5    0.0037252384328069
   6    -7.613894570385e-05
   7    -0.00012576391369149
   8    5.1835434338558e-17
   9    0.0017002251888673
  10    -8.1395001874351e-05
  11    -1.1088525800814e-16
  12      0.70397639987154
  13     0.016953828010285
  14    -0.011887831186179
  15    -0.00021917165503305
  16    -0.0020441842933954
  17    -1.3919003648084e-16
  18    -0.00083025472862869
  19    0.0037816425152138
  20    1.7054692953736e-16
  21    1.8799719627514e-05
  22    -0.0003914625484712
  23    0.0057809434182784
  24    -5.8485226079081e-06
  25    -3.1450984251097e-05
  26    -1.3296394372405e-16
  27    -0.0022737783959771
  28      0.00122731912945
  29    1.0360196047604e-16
  30    -0.00026917893436169
  31    -0.00022203032903496
  32    -1.8799726135415e-05
  33    0.00039146259557348
  34    -0.0057809443052996
  35    -5.8485264447093e-06
  36    -3.1451012597838e-05
  37    -1.8451133255255e-17
  38    -0.0022737791691353
  39    0.0012273197058344
  40    -1.6169587765359e-17
  41    0.00026917893608207
  42    0.0002220302263243
  43     -0.70397652275853
  44    -0.016953830992469
  45      0.01188783368495
  46    -0.00021917172945935
  47    -0.0020441846644211
  48    1.5218477127633e-17
  49    -0.00083025464800656
  50    0.0037816433631822
  51    -1.6388176827515e-17
  52    -0.023948495240991
  53    -3.4015015116529e-05
  54    -0.0037252393878964
  55    -7.6138945779103e-05
  56    -0.00012576393151122
  57    8.3469318495931e-18
  58    0.0017002256034528
  59    -8.1394948245223e-05
  60    -4.1675116909989e-18
  61    0.00024771597461053
  62    0.00039585807789942
 Sym= A
 Ene=    -15.63601433
 Spin= Alpha
 Occup=    2.00000
   1    0.00022658199592793
   2    0.0017666687841976
   3      0.70394726583153
   4     0.016293935253347
   5    -0.0090494386672922
   6    0.0020589764773272
   7    -0.00068512389100023
   8    -2.5935502485687e-16
   9    -0.0032246948265501
  10    0.00064254501447204
  11    3.1726072380472e-16
  12    -0.024052792904391
  13    -0.0010171211535458
  14    0.0041128917801883
  15    0.00028808167156211
  16    0.00019514772734233
  17    -4.2414716715023e-17
  18    -0.0013624708586492
  19    -0.0010277062130902
  20    -1.0451639180714e-18
  21    6.9634423496633e-06
  22    -4.5559727172346e-05
  23    -0.0032296822493609
  24    0.00019250980444094
  25    7.5429998047438e-05
  26    -6.125305424655e-18
  27    -0.0026392416958345
  28    -0.0016095610423967
  29    -4.3531218698154e-17
  30    -5.0664485018794e-05
  31    -0.00081138046658496
  32    -6.9634655451394e-06
  33    4.5559519532115e-05
  34     0.003229682813273
  35    0.00019250963979974
  36    7.5429975820066e-05
  37    -2.5256062049037e-17
  38    -0.0026392413134973
  39    -0.0016095606338594
  40    5.9213879523607e-17
  41    5.0664391601869e-05
  42    0.00081138011549357
  43     0.024052777448325
  44    0.0010171205125661
  45    -0.0041128894954309
  46    0.0002880815177344
  47    0.00019514762463283
  48    2.451492501481e-17
  49    -0.0013624701497424
  50    -0.0010277056671277
  51    -4.0715602639818e-17
  52     -0.70394681368496
  53    -0.016293924876447
  54    0.0090494333035805
  55    0.0020589751644973
  56    -0.00068512345480897
  57    6.9870263520982e-18
  58    -0.003224693029564
  59    0.00064254456836894
  60    -8.2874906716165e-19
  61    -0.00022658189034619
  62    -0.0017666675854863
 Sym= A
 Ene=     -15.6360105
 Spin= Alpha
 Occup=    2.00000
   1    -0.00016437280066574
   2    -0.0018662375654743
   3     -0.70393502922687
   4    -0.016155535660429
   5    0.0083505645031846
   6    -0.0020439219257743
   7    0.00067908988030196
   8    -3.4023449197431e-17
   9    0.0027976557156462
  10    -0.00069452732737659
  11    -1.0864893256844e-17
  12     0.024057988765211
  13    0.00099779291883529
  14    -0.0035569249286006
  15    -0.00023949181920678
  16    -0.00015989047661907
  17    -4.2154131367983e-17
  18    0.0011036696229635
  19    0.00084993915201052
  20    3.728575729841e-17
  21    3.6115618550404e-05
  22    0.00032327133401933
  23    -0.000877997416567
  24    -0.0002563230097783
  25    -3.4603188339874e-05
  26    -1.9385625648847e-17
  27    0.00059530260543078
  28    0.00063600254026635
  29    3.4234396124081e-17
  30    0.00014543784659781
  31    0.00054659779519377
  32    3.6115614072496e-05
  33    0.00032327136327226
  34    -0.00087799534190656
  35    0.00025632313342701
  36    3.460323679048e-05
  37    2.8074852735113e-17
  38    -0.00059530430052836
  39    -0.00063600357414279
  40    -5.6545542846821e-17
  41    0.00014543787912832
  42    0.00054659831634182
  43     0.024058004246663
  44    0.00099779357291149
  45    -0.0035569275708712
  46    0.00023949200425957
  47    0.00015989060205873
  48    -2.5113993548569e-17
  49    -0.001103670498068
  50    -0.00084993981228014
  51    4.1616026635549e-17
  52     -0.70393548138002
  53    -0.016155546126238
  54    0.0083505703159176
  55    0.0020439232482911
  56    -0.00067909032035559
  57    -9.8892782459395e-18
  58    -0.0027976577869808
  59    0.00069452774008955
  60    3.4134146548472e-18
  61    -0.00016437294621019
  62    -0.0018662387002468
 Sym= A
 Ene=    -11.31274693
 Spin= Alpha
 Occup=    2.00000
   1    9.5856240257831e-05
   2    0.00020846118600729
   3    1.7291580924847e-05
   4    0.00021522759833912
   5    -0.0012049527540936
   6    -1.4546876630445e-05
   7    -2.5720508989234e-05
   8    4.2012432480147e-17
   9    -0.00054332356942127
  10    0.0001392423523346
  11    -7.6550846853954e-17
  12    0.00011625061460401
  13    8.0489256317234e-05
  14    -0.00032034701351098
  15    9.1216618621077e-05
  16    2.2200319596521e-05
  17    -8.9154816490638e-17
  18    -0.0007501421044614
  19    -0.00045867756963585
  20    1.6326302796219e-16
  21     -0.70416200961544
  22    -0.016900553710296
  23    0.0060270790377569
  24    7.6964529551193e-05
  25    -0.00027734141864953
  26    9.6762671491495e-17
  27    -0.00013707743421108
  28    -6.852916674634e-05
  29    -1.8258180189792e-16
  30    0.00025640158749879
  31    -0.0017162361585459
  32     -0.70416200903096
  33    -0.016900553695116
  34    0.0060270790242896
  35    -7.6964529870564e-05
  36    0.00027734141818428
  37    -2.3818833022382e-17
  38    0.00013707743755111
  39    6.8529168558714e-05
  40    9.8377020384678e-17
  41    0.00025640158746275
  42    -0.0017162361573038
  43    0.00011625061449927
  44    8.0489256228842e-05
  45    -0.00032034701210318
  46    -9.121661862454e-05
  47    -2.2200319601909e-05
  48    2.3047873770153e-17
  49    0.00075014210426479
  50    0.0004586775696211
  51    4.0001075037179e-18
  52    1.7291580924402e-05
  53    0.00021522759827319
  54    -0.0012049527541034
  55    1.4546876654794e-05
  56    2.5720508974408e-05
  57    1.4352055163028e-16
  58    0.00054332356953791
  59    -0.00013924235206821
  60    -1.6056251686088e-16
  61    9.5856240218271e-05
  62    0.00020846118566481
 Sym= A
 Ene=    -11.31140282
 Spin= Alpha
 Occup=    2.00000
   1    4.5082896930232e-05
   2    0.00041491282828468
   3    -1.905608032907e-06
   4    7.7265844175602e-05
   5    4.6889800964387e-05
   6    3.1351118224323e-05
   7    -1.7909265855853e-05
   8    -2.9347730042588e-17
   9    0.00015626651346963
  10    0.00032888204364289
  11    2.2701601096894e-17
  12    0.0001281081680188
  13    0.00011076850582672
  14    -0.0017247075795702
  15    -9.812055567887e-06
  16    -6.1632099505311e-06
  17    -3.1552124698385e-17
  18    -0.00020881685942931
  19    2.8069919226622e-06
  20    4.1113779139077e-17
  21     -0.70452460632635
  22    -0.018317674480999
  23     0.016233011617866
  24    -0.00041947133936598
  25    -0.00054178298294958
  26    1.2033913104495e-17
  27    0.0040248860431614
  28    0.0021465158908269
  29    -1.0205291704517e-17
  30    4.5567653762266e-05
  31    -0.0015193481051216
  32      0.70452460691053
  33     0.018317674495035
  34    -0.016233011622878
  35    -0.00041947133932463
  36    -0.00054178298315668
  37    3.1925115794039e-17
  38    0.0040248860430907
  39    0.0021465158907183
  40    -4.3013499964964e-17
  41    -4.556765397488e-05
  42    0.0015193481065712
  43    -0.00012810816811003
  44    -0.00011076850588917
  45    0.0017247075797993
  46    -9.8120554921536e-06
  47    -6.1632099293283e-06
  48    -2.2098190407909e-17
  49    -0.00020881686006258
  50    2.806991533424e-06
  51    -1.7266039618881e-17
  52    1.9056080137193e-06
  53    -7.7265844355448e-05
  54    -4.6889799946714e-05
  55    3.1351118211793e-05
  56    -1.7909265877745e-05
  57    -1.6712934703034e-16
  58    0.00015626651301497
  59    0.00032888204375291
  60    1.8621395877562e-16
  61    -4.5082897008554e-05
  62    -0.00041491282846336
 Sym= A
 Ene=    -1.407659361
 Spin= Alpha
 Occup=    2.00000
   1    -0.045325345026457
   2    0.0070659903568552
   3     0.096373019640545
   4     -0.21357814059318
   5     -0.13796047382671
   6       -0.117490391246
   7    -0.018351336430436
   8    2.3311202237493e-16
   9    -0.019157683725712
  10     0.010020362870392
  11    -5.4842188100827e-16
  12      0.10980924001163
  13     -0.23513789387499
  14     -0.21897084026613
  15     0.066908778109695
  16     0.091335864207037
  17    -2.9694023222729e-16
  18    -0.011270628842883
  19     0.048069854921469
  20    6.5042757935952e-16
  21      0.04677118169316
  22    -0.097187115754106
  23    -0.00044927978426071
  24     0.028225038749034
  25    -0.028628630416021
  26    2.7915136652775e-16
  27    -0.030346054150383
  28     0.034990725588562
  29    -3.6972617411594e-16
  30    -0.015593215613288
  31    0.0075171026001909
  32     0.046771181685233
  33      -0.0971871157368
  34    -0.00044927979923908
  35    -0.028225038733971
  36     0.028628630410198
  37    8.5057868789049e-17
  38     0.030346054149693
  39    -0.034990725580479
  40    -7.6691148219791e-17
  41     -0.01559321561042
  42    0.0075171025995252
  43      0.10980923998151
  44     -0.23513789381042
  45     -0.21897084020961
  46    -0.066908778089258
  47    -0.091335864181639
  48    -5.4268300492876e-17
  49      0.01127062883522
  50    -0.048069854910706
  51    -3.3210069775485e-17
  52      0.09637301961315
  53     -0.21357814053266
  54     -0.13796047378214
  55      0.11749039121284
  56     0.018351336425415
  57    -3.3528669436793e-17
  58     0.019157683718399
  59    -0.010020362868777
  60    1.1711467531035e-16
  61    -0.045325345013547
  62     0.007065990354335
 Sym= A
 Ene=    -1.401928901
 Spin= Alpha
 Occup=    2.00000
   1     -0.04730028187451
   2    0.0089345784911139
   3      0.10007406838973
   4        -0.22140521841
   5     -0.16089744471733
   6     -0.12186612089892
   7    -0.018973544535775
   8    2.6174302380237e-16
   9    -0.025939600327378
  10      0.00619192579468
  11    -3.8468343298105e-16
  12      0.11018469213063
  13     -0.23636150732692
  14     -0.20607641271511
  15     0.076298966999074
  16     0.092874062065072
  17    -3.0912611845865e-16
  18    -0.026411100442917
  19     0.039246182392875
  20    6.395465673524e-16
  21     0.029299974587974
  22    -0.062725043257077
  23     0.048786911066983
  24      0.05512228893981
  25    -0.020800549884377
  26    1.227427876972e-16
  27    -0.0027944499069952
  28     0.028152344945774
  29    -5.9866672802496e-16
  30    -0.010542256526404
  31    0.0024531222883716
  32    -0.029299974601039
  33     0.062725043283967
  34    -0.048786911065611
  35     0.055122288947332
  36    -0.020800549892219
  37    1.2228496133758e-16
  38    -0.0027944499145525
  39     0.028152344954696
  40    1.6439947813568e-16
  41     0.010542256530783
  42    -0.0024531222902933
  43     -0.11018469216062
  44      0.23636150739124
  45      0.20607641277426
  46     0.076298967017577
  47     0.092874062089996
  48    -6.8667646661212e-17
  49    -0.026411100445667
  50     0.039246182405756
  51    5.4966514248561e-17
  52     -0.10007406841591
  53      0.22140521846816
  54      0.16089744475438
  55     -0.12186612093111
  56    -0.018973544540961
  57    -2.0598990034964e-17
  58    -0.025939600332387
  59    0.0061919257974358
  60    2.7116909207805e-18
  61     0.047300281886867
  62    -0.0089345784930131
 Sym= A
 Ene=    -1.139568469
 Spin= Alpha
 Occup=    2.00000
   1     0.043002634203877
   2    -0.0064800795162664
   3    -0.068066074698962
   4      0.15105737907422
   5      0.17154187245657
   6     0.042953343529313
   7    -0.00056565737740827
   8    6.3856173407654e-17
   9     0.028668807802767
  10    -0.013502831545058
  11    -4.4325414862861e-16
  12     0.018079395782621
  13      -0.0319028083715
  14    -0.087314552090892
  15     -0.14989219090021
  16    0.0031262134246165
  17    -7.9030691389827e-18
  18    -0.032338901727078
  19     0.018856641927751
  20    7.3721673640313e-16
  21      0.13687474749988
  22     -0.28539747326182
  23     -0.16834000867794
  24    -0.081850849689486
  25    -0.068562918093252
  26    4.2304894048088e-16
  27    -0.014762671006076
  28     0.021884205491559
  29    -3.6723717416898e-16
  30    -0.061668643907539
  31     0.005847688603694
  32       0.1368747474992
  33     -0.28539747326013
  34     -0.16834000867694
  35     0.081850849690715
  36     0.068562918092034
  37    -5.4348143410236e-17
  38     0.014762671006645
  39    -0.021884205491774
  40    9.2024616549115e-17
  41    -0.061668643907405
  42      0.00584768860372
  43     0.018079395781952
  44    -0.031902808369676
  45    -0.087314552090425
  46      0.14989219089865
  47    -0.0031262134242162
  48    7.7225837809687e-17
  49     0.032338901726483
  50    -0.018856641927902
  51    -2.3906341269786e-16
  52    -0.068066074698422
  53      0.15105737907298
  54       0.1715418724555
  55    -0.042953343529588
  56    0.00056565737699189
  57    -1.0599844549898e-16
  58    -0.028668807802887
  59     0.013502831544752
  60    1.3263970283971e-16
  61     0.043002634203316
  62    -0.0064800795162585
 Sym= A
 Ene=    -1.004841122
 Spin= Alpha
 Occup=    2.00000
   1    -0.087517514987071
   2    -0.0051946479423477
   3     0.094083623892277
   4     -0.20842559357288
   5     -0.27974563463329
   6    -0.0028380329824042
   7     0.043222682225604
   8    -2.0821494911776e-16
   9    -0.031508310468334
  10     0.026886436892915
  11    -2.3486196068338e-18
  12     -0.07116154763144
  13      0.14872887846302
  14      0.24820081284733
  15      0.18564687383798
  16    -0.030056803145668
  17    -1.3931325966564e-16
  18      0.04966819439715
  19    -0.040687721381145
  20    -2.4455330737014e-16
  21    -0.074153419167715
  22      0.15582330273362
  23     0.097660025652271
  24     -0.13182663417894
  25     0.061930200019009
  26    -4.2645177206015e-16
  27    -0.0096273736255475
  28    -0.0052888056130131
  29    -2.8902456818812e-16
  30     0.035329160196453
  31    -0.0028028343560158
  32     0.074153419169298
  33     -0.15582330273664
  34    -0.097660025655225
  35     -0.13182663417629
  36     0.061930200019039
  37    -1.4989750705982e-16
  38    -0.0096273736257309
  39    -0.005288805612729
  40    6.0928274291285e-17
  41    -0.035329160197462
  42    0.0028028343557485
  43     0.071161547630841
  44     -0.14872887846123
  45     -0.24820081284628
  46      0.18564687383824
  47    -0.030056803145448
  48    -3.6296985036948e-17
  49     0.049668194396529
  50    -0.040687721381172
  51    -1.620605264349e-16
  52    -0.094083623892223
  53      0.20842559357263
  54      0.27974563463347
  55    -0.0028380329835967
  56     0.043222682224369
  57    2.6890040097537e-17
  58    -0.031508310468977
  59     0.026886436892304
  60    8.267078615024e-17
  61     0.087517514986331
  62    0.0051946479423398
 Sym= A
 Ene=   -0.8845404087
 Spin= Alpha
 Occup=    2.00000
   1      0.14619081459999
   2     0.043019354494439
   3     -0.07563892023355
   4      0.15936464771512
   5      0.29307504263061
   6    -0.081395577975925
   7     -0.16385459760857
   8    2.8988471342688e-16
   9     0.019216010442202
  10    -0.057458525040967
  11    2.7388172932638e-17
  12     0.090468793578551
  13     -0.19834152274569
  14     -0.34742106487331
  15    -0.013179867203015
  16    -0.0056083324409837
  17    1.5421584977378e-16
  18    0.0078428664406264
  19     0.041263789473707
  20    2.0728441230057e-16
  21    -0.050259660114857
  22      0.10677322516473
  23      0.13583831066821
  24      0.16309249676235
  25    -0.029593571854176
  26    2.2287681266512e-16
  27    -0.011929925722664
  28    -0.0039941146545021
  29    1.7845238660002e-16
  30     0.053054855286797
  31     0.015056482988557
  32    -0.050259660112823
  33      0.10677322516073
  34      0.13583831066252
  35     -0.16309249676462
  36     0.029593571853538
  37    8.4470590199859e-18
  38     0.011929925721078
  39    0.0039941146544265
  40    -2.205429342833e-17
  41     0.053054855284702
  42     0.015056482987955
  43     0.090468793578174
  44     -0.19834152274457
  45     -0.34742106487167
  46     0.013179867206865
  47     0.005608332439392
  48    -1.2838499702024e-16
  49    -0.0078428664403256
  50    -0.041263789474195
  51    -1.0730674146404e-16
  52    -0.075638920233932
  53      0.15936464771595
  54      0.29307504263164
  55     0.081395577974045
  56      0.16385459760463
  57    4.933834631371e-17
  58    -0.019216010442899
  59     0.057458525039339
  60    2.1019376586954e-17
  61      0.14619081459806
  62     0.043019354493856
 Sym= A
 Ene=   -0.8385354973
 Spin= Alpha
 Occup=    2.00000
   1       -0.117089333953
   2    -0.047769705869358
   3     0.017193875727039
   4    -0.027246752112895
   5     -0.10087469410392
   6     0.059336459831679
   7      0.18221530161013
   8    -1.042793994806e-16
   9    -0.0090983525020138
  10     0.061080375257269
  11    1.7598605054087e-16
  12    -0.051284202414348
  13      0.12137248424028
  14      0.17452385188531
  15      -0.1116499124662
  16     0.088306222599357
  17    -3.3196596368663e-17
  18     -0.05591087624706
  19     0.021269039324095
  20    -4.1804071582213e-16
  21     0.077830217003126
  22     -0.16490988126257
  23     -0.10162202207688
  24     0.055376194718088
  25      0.13769812001928
  26    2.9141487683546e-16
  27     0.076977161798216
  28     0.095591219303724
  29    5.4628267394869e-16
  30     -0.14067396033087
  31    -0.046293386206289
  32    -0.077830217004053
  33      0.16490988126464
  34      0.10162202207787
  35     0.055376194712447
  36      0.13769812001946
  37    9.5146882732883e-17
  38     0.076977161796505
  39      0.09559121930459
  40    -2.803950482286e-16
  41      0.14067396033187
  42      0.04629338620658
  43     0.051284202415936
  44     -0.12137248424389
  45     -0.17452385189038
  46     -0.11164991246441
  47     0.088306222598211
  48    -1.9727535170227e-18
  49    -0.055910876247403
  50     0.021269039323126
  51    1.4054717282037e-16
  52    -0.017193875728608
  53     0.027246752116198
  54      0.10087469411002
  55     0.059336459832951
  56      0.18221530161103
  57    -1.3464728084363e-17
  58    -0.0090983525024112
  59     0.061080375257336
  60    -7.5164130304146e-17
  61      0.11708933395471
  62     0.047769705869999
 Sym= A
 Ene=   -0.7465624954
 Spin= Alpha
 Occup=    2.00000
   1     -0.12723200016337
   2    -0.061169097321014
   3     0.019328440645466
   4    -0.029613513230191
   5     -0.10339710886808
   6      0.10774743216546
   7      0.19891529356938
   8    -1.7445000154251e-16
   9     0.019498092218828
  10     0.078822161524856
  11    -2.1504964526373e-16
  12    -0.0033822586774976
  13     0.014693203301212
  14     0.025333324422028
  15     -0.20728994290777
  16    -0.0086482438683331
  17    4.3034295944374e-16
  18    -0.075622559391626
  19    -0.0098930283733746
  20    8.332295541511e-17
  21    -0.025325288164323
  22     0.049536699227984
  23     0.043228263342803
  24     0.068869411730671
  25     -0.23343641031015
  26    1.4431720000201e-16
  27    0.0062089830021352
  28    -0.094124027619428
  29    2.9224291318756e-16
  30      0.13933948048828
  31       0.0701447283344
  32     0.025325288162663
  33    -0.049536699224488
  34     -0.04322826333909
  35     0.068869411713248
  36      -0.2334364103108
  37    1.9449888293328e-17
  38     0.006208982998191
  39    -0.094124027620884
  40    -1.3965145471913e-16
  41     -0.13933948048835
  42     -0.07014472833451
  43    0.0033822586784415
  44    -0.014693203302784
  45    -0.025333324426604
  46     -0.20728994289433
  47    -0.0086482438746614
  48    -6.7124580834654e-17
  49    -0.075622559385552
  50    -0.0098930283768793
  51    -5.0206697996148e-17
  52    -0.019328440647129
  53     0.029613513234678
  54      0.10339710887174
  55      0.10774743216397
  56      0.19891529355723
  57    4.7859206069303e-17
  58      0.01949809221946
  59     0.078822161520003
  60    1.4125022641248e-16
  61      0.12723200015778
  62     0.061169097318035
 Sym= A
 Ene=   -0.7367063008
 Spin= Alpha
 Occup=    2.00000
   1    -0.096467164912116
   2    -0.054468895913846
   3     -0.02722019297798
   4      0.07552184917363
   5     0.060493633869491
   6    0.0044663456854261
   7      0.20477117972932
   8    1.5950385096268e-16
   9     -0.02454552912599
  10     0.083402135503493
  11    1.2070408099702e-16
  12    0.0038480565766155
  13    -0.00041991068549403
  14    -0.0093590535242415
  15     -0.20557056839386
  16      0.13808968275266
  17    2.9779140141171e-16
  18    -0.085638617453585
  19     0.066264857869605
  20    2.3212115669286e-16
  21    -0.017076263741707
  22     0.038554070281534
  23    0.0054920815611198
  24      0.30489163705966
  25     0.058471364810359
  26    2.5780440642062e-16
  27     0.099205073880117
  28      0.03773123759519
  29    1.6110964857002e-16
  30    -0.031920357103639
  31    -0.011876942954038
  32    -0.017076263742115
  33     0.038554070282403
  34     0.005492081559306
  35     -0.30489163706388
  36    -0.058471364798019
  37    2.4931005075773e-17
  38    -0.099205073880775
  39    -0.037731237589351
  40    -7.2123945930962e-17
  41    -0.031920357097413
  42    -0.011876942951205
  43    0.0038480565760829
  44    -0.00041991068375273
  45    -0.0093590535206963
  46       0.2055705684066
  47     -0.13808968275231
  48    -1.263546414638e-16
  49     0.085638617457851
  50    -0.066264857868778
  51    -2.2391386178024e-17
  52    -0.027220192976736
  53     0.075521849171746
  54     0.060493633862699
  55    -0.0044663456927223
  56     -0.20477117974126
  57    -8.0989494502765e-17
  58     0.024545529124645
  59    -0.083402135508238
  60    -3.7747895449561e-17
  61    -0.096467164919919
  62    -0.054468895917753
 Sym= A
 Ene=   -0.6484426243
 Spin= Alpha
 Occup=    2.00000
   1    -0.079320980351009
   2    -0.041833209916515
   3     0.014061684252983
   4    -0.022610098750693
   5    -0.068633852223697
   6      0.12897071970545
   7        0.115864210108
   8    -2.1708452905885e-16
   9     0.056208317472544
  10     0.049920619284232
  11    -2.3898763857714e-16
  12     0.030849695792451
  13    -0.064690835066212
  14    -0.096415151473247
  15     -0.18730553473514
  16     -0.10285716217462
  17    3.1003704605624e-16
  18    -0.059805111727343
  19    -0.055639129232932
  20    1.2946547463301e-16
  21    -0.019655854257798
  22     0.035947356866818
  23     0.090792891636352
  24    -0.045599351925929
  25     -0.26702059739394
  26    9.1098815155427e-17
  27    -0.0088311877177697
  28     -0.18153048160892
  29    3.4769735915679e-16
  30      0.18349463238851
  31     0.086211479395381
  32      -0.0196558542581
  33     0.035947356867342
  34      0.09079289163955
  35     0.045599351924391
  36      0.26702059739649
  37    1.4594946941976e-17
  38    0.0088311877146373
  39       0.1815304816088
  40    -2.3489797735361e-16
  41       0.1834946323908
  42     0.086211479397568
  43     0.030849695792193
  44    -0.064690835065446
  45    -0.096415151471628
  46      0.18730553473627
  47      0.10285716217211
  48    -2.3833827607155e-17
  49     0.059805111727421
  50      0.05563912923164
  51    1.6053326345375e-16
  52     0.014061684252827
  53    -0.022610098750254
  54    -0.068633852222762
  55     -0.12897071970409
  56     -0.11586421011039
  57    -5.0684081251356e-17
  58    -0.056208317471757
  59    -0.049920619285408
  60    -5.8122420492648e-17
  61    -0.079320980352337
  62     -0.04183320991725
 Sym= A
 Ene=   -0.5617682107
 Spin= Alpha
 Occup=    2.00000
   1    -0.017410302892872
   2     0.013541181937668
   3    -0.041072314327142
   4     0.084329451721976
   5      0.17228629912459
   6     -0.30220871955971
   7     0.093554591591456
   8    8.0234691394563e-16
   9     -0.17182170658985
  10      0.06489140335754
  11    5.070660140879e-16
  12     -0.01873988358878
  13     0.041330306168739
  14     0.058187179990206
  15     0.095231276079187
  16      0.27020676678834
  17    -1.9376373311109e-17
  18    -0.0060759781506229
  19      0.17747059757714
  20    5.6195410752634e-18
  21    -0.029075201603414
  22     0.042665655753328
  23      0.31714759758412
  24     0.015820888032038
  25     -0.05461289207714
  26    -1.7347175006944e-16
  27     0.086688282328976
  28     0.071104994119177
  29    -1.6577868764975e-16
  30     0.072561930831291
  31     0.067412323129344
  32     0.029075201603843
  33    -0.042665655755049
  34     -0.31714759758208
  35     0.015820888042019
  36     -0.05461289206579
  37    -1.5067086842327e-16
  38     0.086688282332617
  39     0.071104994123916
  40    1.3195723138057e-18
  41    -0.072561930822908
  42    -0.067412323122371
  43     0.018739883587634
  44    -0.041330306166411
  45    -0.058187179984666
  46     0.095231276073967
  47       0.2702067667759
  48    6.2788597132468e-17
  49    -0.0060759781528666
  50       0.1774705975685
  51    -4.9260081154836e-17
  52     0.041072314325724
  53    -0.084329451719085
  54     -0.17228629911746
  55     -0.30220871954416
  56     0.093554591586434
  57    1.6585989912322e-16
  58     -0.17182170658107
  59     0.064891403353748
  60    1.0721817145012e-16
  61       0.0174103028915
  62    -0.013541181937288
 Sym= A
 Ene=   -0.5360244832
 Spin= Alpha
 Occup=    2.00000
   1    -0.0081853748756805
   2     0.017884072697656
   3    -0.026434327336165
   4     0.050250216715378
   5      0.13295755247677
   6      -0.2753143595427
   7     0.067705330683084
   8    5.6771735051903e-16
   9     -0.15784562948331
  10     0.060384026439816
  11    4.2737145378315e-16
  12    -0.024935472097319
  13     0.049114267842583
  14      0.11591961850006
  15      0.10552231510944
  16      0.24521636903534
  17    7.1483323974944e-17
  18     0.041943585473751
  19      0.17067508865477
  20    -1.3717151520725e-16
  21     0.010412894274972
  22    -0.037055640016123
  23     0.015808462585317
  24     -0.14811591334525
  25      -0.1560892066204
  26    1.9719334482583e-17
  27    -0.051736286348262
  28    -0.050783965349698
  29    2.1031970153423e-16
  30      0.12046530208473
  31      0.11792544706088
  32     0.010412894273236
  33    -0.037055640013743
  34     0.015808462607625
  35      0.14811591334411
  36      0.15608920662253
  37    2.2146931052974e-17
  38     0.051736286341492
  39      0.05078396534348
  40    -2.2815108369062e-17
  41      0.12046530208895
  42      0.11792544706572
  43    -0.024935472098356
  44     0.049114267844827
  45      0.11591961850265
  46     -0.10552231511494
  47     -0.24521636905106
  48    -3.4984775051785e-17
  49    -0.041943585472593
  50     -0.17067508866529
  51    -1.1393958902879e-17
  52    -0.026434327338569
  53     0.050250216720157
  54      0.13295755248678
  55      0.27531435955987
  56     -0.06770533068819
  57    -8.170039248836e-17
  58      0.15784562949331
  59    -0.060384026443506
  60    -4.7268869427925e-17
  61    -0.0081853748764471
  62     0.017884072698659
 Sym= A
 Ene=   -0.4147288256
 Spin= Alpha
 Occup=    2.00000
   1     -0.13673487958264
   2     -0.15022222736516
   3    -0.048078976693042
   4      0.11665230777341
   5      0.16517242804915
   6     -0.14981682622057
   7      0.19923609004606
   8    6.9893281772002e-16
   9     -0.16725953903617
  10      0.11948655366739
  11    5.513179929711e-16
  12      0.05002108023923
  13     -0.11806751627007
  14     -0.16534481448954
  15     0.041957532352841
  16     -0.28236901481791
  17    2.425136443985e-16
  18    -0.014336162606259
  19     -0.24431455324698
  20    -2.7385340162583e-17
  21    -0.027956161897736
  22     0.069694801228656
  23     0.093768287210933
  24     -0.11594771127192
  25     0.098403664429293
  26    -2.3241151482209e-16
  27    -0.0090951005319286
  28      0.04640079473961
  29    -2.1779818039171e-17
  30    -0.042454393295092
  31    -0.052144471703183
  32     0.027956161877829
  33     -0.06969480117494
  34    -0.093768287146299
  35     -0.11594771117053
  36     0.098403664364837
  37    -1.0300492568465e-16
  38    -0.0090951004902766
  39      0.04640079471345
  40    -4.0923117594076e-17
  41     0.042454393256299
  42      0.05214447162822
  43    -0.050021080209602
  44      0.11806751619946
  45      0.16534481440015
  46     0.041957532290697
  47     -0.28236901461839
  48    -6.6161616098802e-17
  49    -0.014336162600794
  50     -0.24431455307254
  51    -1.3655485655692e-16
  52     0.048078976657455
  53     -0.11665230768731
  54      -0.1651724279342
  55     -0.14981682607715
  56      0.19923608990079
  57    2.8385254001118e-16
  58     -0.16725953888577
  59      0.11948655357799
  60     3.09116892456e-16
  61      0.13673487948217
  62      0.15022222725889
 Sym= A
 Ene=   -0.4126429793
 Spin= Alpha
 Occup=    2.00000
   1      0.13237031538727
   2      0.14074079219803
   3     0.046878359287309
   4     -0.11318056858139
   5     -0.15323949179891
   6      0.18782227335203
   7     -0.19102008233989
   8    -6.7363329235486e-16
   9      0.19717996687565
  10     -0.11797548211944
  11    -4.4473855464756e-16
  12     -0.03902437042096
  13     0.092892342945845
  14      0.11858992419022
  15    -0.081807956507891
  16      0.26190016177261
  17    -2.5684185095353e-16
  18    0.0061713286974107
  19      0.22901519457917
  20    -2.0948878852308e-16
  21     0.026322100810611
  22    -0.071013772827405
  23    -0.085887109455978
  24      0.13284754465235
  25    -0.083892306436671
  26    4.1355032380294e-16
  27     0.054849448165183
  28    -0.032844017814551
  29    3.7039507359783e-16
  30     0.050657107436109
  31     0.099805121017622
  32     0.026322100832062
  33    -0.071013772880759
  34    -0.085887109527735
  35      -0.1328475447405
  36     0.083892306510978
  37    1.1967434818059e-16
  38    -0.054849448172831
  39     0.032844017849408
  40    -2.2588221982727e-18
  41     0.050657107468062
  42     0.099805121057672
  43    -0.039024370459013
  44     0.092892343035612
  45      0.11858992431714
  46     0.081807956540276
  47     -0.26190016198654
  48    -8.8684194091169e-17
  49    -0.0061713287075202
  50      -0.2290151947642
  51    -1.28603718661e-16
  52     0.046878359324033
  53     -0.11318056867025
  54     -0.15323949192668
  55     -0.18782227346616
  56      0.19102008249155
  57    2.3564764348679e-16
  58     -0.19717996700285
  59       0.1179754822108
  60    2.7027458746499e-16
  61      0.13237031549145
  62      0.14074079231305
 Sym= A
 Ene=               0
 Spin= Alpha
 Occup=    1.88604
   1    -1.3392984640066e-17
   2    -2.9750061270569e-16
   3    -2.3452499042423e-16
   4    7.6241096972343e-16
   5    8.1880726662192e-16
   6    -4.725456098828e-16
   7    4.8366631385618e-16
   8     -0.31878110843944
   9    -3.9987670563635e-16
  10    6.1264623518467e-16
  11     -0.19382305487881
  12    2.2490635934361e-16
  13    -2.3617497730831e-16
  14    -2.6600683132284e-15
  15    -3.4095978892139e-16
  16    1.6355953091064e-16
  17     -0.42515879069504
  18    -4.2161230688383e-16
  19    7.6135922044637e-16
  20     -0.27617700499863
  21    7.8503460408123e-17
  22    3.5144195649047e-16
  23    -3.9832953332505e-15
  24    -1.151569274894e-16
  25    -1.9777941596755e-18
  26     -0.24089192137172
  27    -4.2157074940172e-15
  28    3.4033275583518e-16
  29     -0.16879662685685
  30    1.6685807423741e-16
  31    1.0058512525791e-15
  32    -4.8657733748236e-17
  33    -2.8552360050846e-16
  34    3.5439241291907e-15
  35    -1.1618484476679e-16
  36    1.9458950213177e-16
  37     -0.04836441302573
  38    -2.7750206730747e-15
  39    -2.7343734787987e-15
  40    0.0088546325004315
  41    9.6882522066342e-17
  42    1.2614587747613e-15
  43    -3.7960544534016e-17
  44    -1.5323017599937e-16
  45    1.9582194667042e-16
  46    3.8344606011792e-17
  47    -8.2820159798101e-19
  48     0.022943816158708
  49    -1.5122899933281e-16
  50    5.7602216632332e-16
  51     0.020314625602203
  52    -1.6401364818049e-17
  53    -1.0595514947867e-16
  54    1.5793182373871e-16
  55    9.1407631979447e-17
  56    5.1829681041909e-17
  57     0.019336043294637
  58    -2.156753045885e-16
  59    -1.424761120062e-16
  60     0.011645628249127
  61    -9.5161964314779e-17
  62    2.4645099074204e-16
 Sym= A
 Ene=               0
 Spin= Alpha
 Occup=    1.00036
   1    -3.1631014540735e-16
   2    9.8403641573225e-17
   3    -1.7851099120502e-16
   4    3.1044056633643e-16
   5    2.5707620147501e-15
   6    -7.5806913836262e-16
   7    4.5178925276671e-16
   8     -0.45318017225921
   9    8.0344352171738e-16
  10    1.0845741946264e-15
  11     -0.34473347412089
  12    1.0205552269307e-16
  13    -1.3143077494483e-17
  14    -1.6055385077154e-15
  15    2.2492331236291e-16
  16    -1.1102343368978e-16
  17       0.0182196678787
  18    2.1201561977921e-15
  19    5.7204243434503e-16
  20     0.023668330272784
  21    -8.8795121141662e-17
  22    5.2911373325693e-16
  23    -1.0491991407221e-15
  24    -4.1846712134017e-16
  25    3.2084443780537e-16
  26      0.48125772270162
  27    -8.8494493304015e-16
  28    -2.8068966434015e-15
  29      0.42406273104691
  30    -2.4831649656731e-16
  31    -1.923872003971e-15
  32    -4.2729695143233e-18
  33    -2.6342210617515e-16
  34    2.3334024354433e-15
  35    1.4921635355389e-16
  36    -6.2335698658171e-17
  37    -0.012864467640799
  38    -1.5891071966025e-15
  39     1.68579952966e-15
  40     -0.12508301390961
  41    -2.3560573949561e-16
  42    -1.6535951641091e-15
  43    5.0973876643304e-19
  44    8.2182400327513e-17
  45    -3.5935970589416e-16
  46    -7.3245825211131e-18
  47    4.7505395227564e-17
  48     -0.09384106979565
  49    -1.4235826193458e-15
  50    -2.9042742000749e-16
  51    -0.075312688240322
  52    -3.0677159876628e-17
  53    -1.7517426343408e-16
  54    1.6212728403831e-15
  55    -2.4651277901511e-17
  56    5.8206425088665e-17
  57     0.013823059804983
  58    -8.4034333307863e-16
  59    -4.1585807618342e-16
  60     0.033490134276772
  61    -9.8465882456176e-17
  62    5.8654367076775e-17
 Sym= A
 Ene=               0
 Spin= Alpha
 Occup=    0.11360
   1    -4.977809203816e-16
   2    3.9951865988341e-16
   3    -1.663706646698e-16
   4    -2.060867595276e-16
   5    4.4733826190694e-15
   6    -5.597628112789e-16
   7    1.343403033081e-16
   8     -0.45802481030462
   9    2.5272822683634e-15
  10    1.1987281373029e-15
  11     -0.25203655113589
  12    -9.4773774233177e-17
  13    2.7796261700189e-16
  14    -9.101347887008e-17
  15    4.3127419595554e-16
  16    -3.066891377725e-16
  17      0.58710214338772
  18    4.5085268896887e-15
  19    -4.2176754883806e-16
  20       0.3955642476965
  21    9.9477307637177e-17
  22    -6.2472270908108e-16
  23    1.5897537808495e-15
  24    5.1210267246808e-16
  25    -5.3043723199446e-16
  26     -0.41152201440493
  27    5.8768497917096e-15
  28    -5.1106763990357e-16
  29     -0.33650807215349
  30    2.0880611890672e-16
  31    2.9737502769883e-16
  32    1.0094990479134e-16
  33    8.0127489641576e-16
  34    -6.689068067312e-15
  35    -1.3255307540887e-16
  36    -1.8123726626467e-16
  37     0.093213989868677
  38    1.9797707979751e-15
  39    3.5643885531639e-15
  40      0.16578958358755
  41    -1.5634499828463e-16
  42    -5.4982915256438e-16
  43    -1.495653751168e-17
  44    -2.4390720303902e-16
  45    1.8018049840618e-15
  46    -1.1112275433821e-16
  47    -1.8100095025805e-16
  48      0.02283145182172
  49    -7.478156989823e-16
  50    4.605444686124e-16
  51    0.0080884005803546
  52    -2.5945002902251e-17
  53    -2.2906354354063e-16
  54    8.1376011264998e-16
  55    2.3495277323816e-17
  56    1.672917218239e-16
  57      -0.0325384538786
  58    2.0758010738145e-16
  59    2.6023663763143e-16
  60    -0.036247837283061
  61    -1.1248677139893e-17
  62    -1.2753313731995e-15
 Sym= A
 Ene=               0
 Spin= Alpha
 Occup=    1.88604
   1    -6.4038312793117e-17
   2    1.0773587028958e-17
   3    -2.4383845446452e-17
   4    5.1609158356056e-18
   5    8.6844080020083e-16
   6    -5.9713763270827e-17
   7    6.0623349732883e-17
   8    -0.019336043289165
   9    3.762987144842e-16
  10    2.5140155956545e-16
  11     -0.01164562824738
  12    2.8632847055348e-17
  13    4.624001408941e-17
  14    -6.3732303765755e-16
  15    4.4613324320484e-17
  16    -4.7961341414056e-17
  17      -0.0229438161425
  18    7.1821857554027e-16
  19    3.7973699369067e-16
  20    -0.020314625591514
  21    -4.0293949318982e-17
  22    2.5916276588948e-18
  23    5.0350200295596e-16
  24    -6.5973827654876e-17
  25    1.3986057879521e-16
  26     0.048364413044865
  27    -3.0404733439923e-16
  28    -1.3181737454201e-15
  29    -0.0088546324876185
  30    -1.2209185216402e-16
  31    -1.1849208681141e-15
  32    -3.0818183107754e-17
  33    -1.1604193005653e-16
  34    1.5421091267658e-15
  35    -1.0011661585745e-16
  36    -1.2933314580297e-16
  37      0.24089192139381
  38    -5.0699265985959e-17
  39    1.0044134886575e-15
  40      0.16879662687108
  41    -1.6078944867238e-16
  42    -1.2821314976925e-15
  43    4.3261407230945e-17
  44    -2.277243518264e-17
  45    -7.5791356225936e-17
  46    6.9728680446231e-17
  47    1.0429713098077e-16
  48      0.42515879069143
  49    2.0774692884766e-17
  50    -1.7696605492874e-16
  51       0.2761770049993
  52    -5.1301201217885e-17
  53    1.2854073642485e-16
  54    3.2267537943027e-16
  55    1.2671383772687e-16
  56    -8.2155675349694e-17
  57      0.31878110842038
  58    1.8457907653134e-16
  59    1.5500962457161e-16
  60      0.19382305486295
  61    -8.631864438768e-17
  62    -3.3172914695404e-16
 Sym= A
 Ene=               0
 Spin= Alpha
 Occup=    1.00036
   1    -6.2610860914145e-17
   2    -1.298334681521e-16
   3    -1.4330824838031e-17
   4    8.6603926902633e-17
   5    1.0753887352314e-16
   6    -5.563966946441e-17
   7    8.5069421303161e-17
   8     0.013823059804387
   9    -1.25233541009e-16
  10    4.441644159666e-17
  11     0.033490134265888
  12    4.9357735852618e-17
  13    2.0069937672547e-17
  14    -3.659707102493e-16
  15    4.3020322219109e-17
  16    -7.0322107789537e-17
  17    -0.093841069769624
  18    -8.5925384498356e-17
  19    3.9505698056849e-16
  20     -0.07531268821083
  21    -4.1130676853407e-17
  22    1.416498409686e-16
  23    -2.4177888726003e-16
  24    -1.3245741298158e-16
  25    1.972942254799e-16
  26    -0.012864467642261
  27    -1.2860332718164e-15
  28    -1.9623674949237e-15
  29     -0.12508301391923
  30    -1.0690860783803e-16
  31    -1.4933342673135e-15
  32    5.5647251474629e-22
  33    -2.8364858642271e-16
  34    1.9339136105095e-15
  35    -1.2857676881918e-16
  36    1.6168112840778e-17
  37       0.4812577226857
  38    -1.7771248062781e-15
  39    1.3266251815146e-15
  40      0.42406273101608
  41    -1.4830681516992e-16
  42    -1.4714911826838e-15
  43    -4.9121168207168e-17
  44    -4.8286778535892e-17
  45    1.3802748427502e-15
  46    4.5048114854054e-17
  47    4.6930306085807e-17
  48     0.018219667882456
  49    -5.6407888737025e-16
  50    3.1133587554142e-16
  51     0.023668330294688
  52    4.3564850154413e-17
  53    -8.8332157637903e-17
  54    -3.2142151650153e-16
  55    -1.52923910646e-16
  56     1.56210785177e-16
  57     -0.45318017229311
  58    7.8932187484643e-18
  59    -9.7860339187098e-17
  60     -0.34473347414947
  61    9.149591472466e-17
  62    4.4517551940709e-16
 Sym= A
 Ene=               0
 Spin= Alpha
 Occup=    0.11360
   1    5.2903929891496e-19
   2    -2.5594201785959e-16
   3    4.1915015301117e-18
   4    -3.7625947472294e-17
   5    1.0481386155229e-16
   6    3.4458209579212e-17
   7    -8.8197934483865e-18
   8     0.032538453870802
   9    5.234422934692e-17
  10    -2.4854681420839e-16
  11     0.036247837276594
  12    3.7485021736202e-17
  13    2.0466112961818e-16
  14    -1.6577835427202e-15
  15    3.057056832212e-18
  16    -2.8646972945087e-16
  17    -0.022831451800884
  18    -9.0132194140745e-16
  19    6.8251152909583e-16
  20    -0.0080884005530452
  21    -1.0588349551098e-17
  22    1.0145795215961e-17
  23    7.8058026315387e-16
  24    -4.3117954296111e-17
  25    -3.0203287074301e-16
  26    -0.093213989893119
  27    -9.3203028705951e-16
  28    1.7233346597432e-15
  29     -0.16578958363288
  30    1.8513818827155e-16
  31    8.1560144020455e-16
  32    1.0771487135178e-17
  33    2.5341707421144e-16
  34    -1.0156849562854e-15
  35    -1.1382299776957e-16
  36    -1.6228290707604e-17
  37      0.41152201446291
  38    -1.3176941416116e-16
  39    -6.379742053193e-16
  40      0.33650807215099
  41    -4.2719748697436e-17
  42    6.3646553501211e-16
  43    -5.1403444857812e-17
  44    -1.3973419777709e-16
  45    1.3559571310762e-15
  46    -1.8766076195751e-16
  47    1.5989642171018e-16
  48     -0.58710214337563
  49    6.0433154063088e-16
  50    5.7178697273241e-16
  51     -0.39556424769443
  52    2.0410965259169e-19
  53    2.2484255692358e-16
  54    -1.1938718477499e-15
  55    2.9175002687048e-16
  56    -7.3780065276898e-17
  57      0.45802481027625
  58    4.3242370174912e-16
  59    1.8209108784387e-16
  60      0.25203655112569
  61    7.1908467341306e-17
  62    -5.0038681941168e-17
 Sym= A
 Ene=    0.1916939899
 Spin= Alpha
 Occup=    0.00000
   1    -0.026245469735809
   2     -0.81737782983604
   3    -0.030608262672338
   4     0.028084033266569
   5      0.54311840324374
   6    -0.0040810017848294
   7     -0.18204936892107
   8    1.1214251548746e-16
   9      0.02662679411734
  10     -0.39707602150366
  11    1.5751989610483e-17
  12    -0.019422229744005
  13      0.02557170130455
  14      0.27189871485268
  15     0.057944255172003
  16     0.016537933812341
  17    -4.1516993583967e-17
  18      0.13433765001253
  19     0.065786872218182
  20    -1.1675690409969e-16
  21    -0.035518642495228
  22     0.044009718300894
  23      0.53072545958275
  24     0.078018784745013
  25     -0.16782644127621
  26    8.2680328907993e-17
  27      0.12347552370259
  28     -0.49002138237152
  29    -1.2758868755637e-16
  30    -0.023771481985122
  31     -0.88286784525446
  32     0.035518642495281
  33    -0.044009718301094
  34     -0.53072545958306
  35     0.078018784744524
  36     -0.16782644127356
  37    7.324236188059e-17
  38      0.12347552369635
  39     -0.49002138235845
  40    1.2491221095912e-16
  41     0.023771481986225
  42      0.88286784524691
  43     0.019422229743809
  44    -0.025571701304645
  45     -0.27189871484621
  46     0.057944255170667
  47     0.016537933811639
  48    -5.4262629669296e-17
  49      0.13433765000612
  50     0.065786872216501
  51    -6.7559181599469e-17
  52      0.03060826267098
  53    -0.028084033264878
  54     -0.54311840322063
  55    -0.0040810017855893
  56     -0.18204936891547
  57    2.5976692055227e-17
  58     0.026626794113891
  59     -0.39707602149089
  60    4.0481767473129e-17
  61     0.026245469734243
  62      0.81737782980491
 Sym= A
 Ene=    0.2261722744
 Spin= Alpha
 Occup=    0.00000
   1    -0.043494662378283
   2      -1.1561051171142
   3    -0.051591728502437
   4     0.058060012953442
   5      0.90681675367358
   6     0.029362307932979
   7     -0.21322771058056
   8    -7.1514200876773e-17
   9      0.15385318152394
  10     -0.47920184471459
  11    1.1810808277453e-16
  12    -0.007387907278677
  13    -0.0077021019373324
  14      0.24147598493891
  15     0.048618109119479
  16     0.045615887495206
  17    -2.4301949675889e-17
  18      0.27876676667227
  19     0.097099694095423
  20    -1.6877514039061e-16
  21    -0.00039422383343442
  22     -0.02363169232967
  23     0.094049381619497
  24    -0.0026295262111662
  25     -0.11512808553606
  26    -1.8447626310127e-16
  27      0.24557294643551
  28      -0.6095736519459
  29    3.4226311635752e-16
  30     0.042464033406258
  31     -0.43703831311029
  32    -0.00039422383494963
  33    -0.023631692327893
  34     0.094049381644027
  35    0.0026295262090329
  36      0.11512808554165
  37    -1.1800384619309e-16
  38     -0.24557294643971
  39      0.60957365196401
  40    -3.7853501227047e-18
  41     0.042464033404684
  42     -0.43703831314748
  43    -0.0073879072792633
  44    -0.0077021019367188
  45      0.24147598494841
  46    -0.048618109120372
  47    -0.045615887495479
  48    3.6497849840856e-17
  49     -0.27876676667486
  50    -0.097099694096763
  51    8.0564419242966e-17
  52    -0.051591728502723
  53      0.05806001295323
  54      0.90681675367979
  55     -0.02936230793257
  56      0.21322771058391
  57    1.351939213346e-16
  58     -0.15385318152292
  59      0.47920184472166
  60    -2.4082125599902e-16
  61    -0.043494662378042
  62      -1.1561051171248
 Sym= A
 Ene=    0.2808548078
 Spin= Alpha
 Occup=    0.00000
   1    -0.049409357114025
   2     -0.27969716967109
   3     -0.02594857750382
   4     0.058529861998075
   5      0.30830758981011
   6     0.032211221196282
   7    0.0038328491067668
   8    7.9052208442178e-17
   9     0.078535647158275
  10    -0.030002355293008
  11    2.0592994701872e-17
  12    -0.0037983310734081
  13      0.01001862782306
  14    -0.0099879840868558
  15      0.10252669554242
  16     -0.12016157311551
  17    -3.1270039724061e-16
  18      0.19583159376131
  19     -0.18570263186424
  20    2.6294656819461e-17
  21     0.068335672762283
  22    -0.063932865961777
  23      -1.3770864455587
  24     0.078820133163006
  25      0.16396601403304
  26    4.2616027343982e-17
  27      0.23965221870195
  28      0.87883810432412
  29    4.2865911358849e-16
  30     0.034054113507029
  31       1.6029524214592
  32     0.068335672761064
  33    -0.063932865959822
  34      -1.3770864455479
  35    -0.078820133161214
  36     -0.16396601403046
  37    5.4527038937299e-16
  38     -0.23965221868796
  39     -0.87883810430931
  40    -9.9730546393616e-16
  41     0.034054113504859
  42       1.6029524214285
  43    -0.003798331073089
  44     0.010018627822163
  45    -0.0099879840901659
  46     -0.10252669554028
  47       0.1201615731154
  48    3.2505235397677e-17
  49     -0.19583159375767
  50      0.18570263186124
  51    3.8347887536809e-17
  52     -0.02594857750296
  53     0.058529861996521
  54      0.30830758979845
  55    -0.032211221195729
  56    -0.0038328491091257
  57    -2.1391618696185e-16
  58    -0.078535647155888
  59     0.030002355287513
  60    3.5305004015625e-16
  61    -0.049409357112939
  62     -0.27969716965582
 Sym= A
 Ene=    0.2901201848
 Spin= Alpha
 Occup=    0.00000
   1     0.045460533514024
   2      0.85078585656482
   3     0.042548026642062
   4    -0.070122900281543
   5      -0.5688580638711
   6    -0.025576711732502
   7      0.13028031138263
   8    5.4125668048424e-18
   9    -0.086372481255703
  10      0.33604365222176
  11    -2.9070358656406e-16
  12     0.014444110806497
  13     -0.03417461136696
  14     -0.16287882000973
  15    -0.090971187594064
  16    -0.014170971341983
  17    6.1343853021335e-17
  18    -0.098388380096344
  19      0.11769402282854
  20    3.2980570579659e-16
  21    -0.053286693279755
  22     0.069994246968602
  23      0.53699863373467
  24    -0.041928064854757
  25     -0.13349739021473
  26    -1.1404173758297e-16
  27     -0.52945165057438
  28     -0.62900097020009
  29    -3.5165124327757e-16
  30    -0.077843105072214
  31      -1.3438253552771
  32     0.053286693281241
  33    -0.069994246970144
  34     -0.53699863376472
  35    -0.041928064856079
  36     -0.13349739021747
  37    -2.0445023093191e-16
  38     -0.52945165058412
  39     -0.62900097021117
  40    4.523657171354e-16
  41     0.077843105072991
  42       1.3438253553064
  43    -0.014444110806712
  44     0.034174611366891
  45      0.16287882001414
  46    -0.090971187596838
  47    -0.014170971339811
  48    -9.2509780081107e-17
  49    -0.098388380104398
  50      0.11769402283186
  51    3.8619470815499e-17
  52    -0.042548026643194
  53     0.070122900283296
  54      0.56885806388779
  55    -0.025576711733642
  56      0.13028031138472
  57    -6.7784859862364e-17
  58    -0.086372481259014
  59      0.33604365222786
  60    -1.6710583483386e-17
  61    -0.045460533515283
  62     -0.85078585658325
 Sym= A
 Ene=    0.3494056837
 Spin= Alpha
 Occup=    0.00000
   1    -0.0081475522605629
   2      0.57364990686931
   3      0.04202690443531
   4    -0.044147221256157
   5      -1.0595046382503
   6     -0.10861818114317
   7    0.0020042992041551
   8    -3.1272374406682e-16
   9     -0.59207022980839
  10    -0.0077827426817282
  11    7.6377092042111e-16
  12    -0.092705793921538
  13      0.13921786405608
  14       1.7741333241814
  15     0.097566180602423
  16     -0.15355087676158
  17    -2.7264704069548e-17
  18    -0.037336881125382
  19     -0.78875816111031
  20    -7.4262039569267e-16
  21     0.036347298334994
  22    -0.062291712215633
  23       0.2946013915444
  24      0.10989427222724
  25    -0.079547698852489
  26    -2.2966537831555e-16
  27       1.5648518541909
  28      0.17095898383456
  29    9.9091254823526e-16
  30    -0.060264813006783
  31      0.16990549048702
  32    -0.036347298334832
  33     0.062291712217359
  34     -0.29460139155275
  35      0.10989427222487
  36    -0.079547698850557
  37    1.974237642741e-16
  38       1.5648518541796
  39      0.17095898384783
  40    -6.4559058591744e-16
  41     0.060264813008267
  42     -0.16990549049474
  43     0.092705793920802
  44     -0.13921786405491
  45      -1.7741333241601
  46      0.09756618060234
  47     -0.15355087676061
  48    4.2888531210654e-17
  49    -0.037336881126279
  50       -0.788758161103
  51    4.655689078101e-17
  52    -0.042026904435037
  53     0.044147221256144
  54        1.059504638242
  55     -0.10861818114291
  56    0.0020042992049364
  57    1.192915485182e-16
  58     -0.59207022980208
  59    -0.0077827426791602
  60    -5.6585425303809e-17
  61    0.0081475522603003
  62     -0.57364990686847
 Sym= A
 Ene=    0.4740282858
 Spin= Alpha
 Occup=    0.00000
   1    -0.026314103849538
   2      0.62224797265474
   3     0.035674015532379
   4     0.019558562974719
   5     -0.98250597172691
   6    -0.015030204344168
   7     0.012108563434534
   8    -3.8297046214974e-16
   9     -0.66247197216806
  10     0.044062849503131
  11    6.6390052184995e-16
  12     -0.08616792456547
  13      0.08674182735337
  14       2.7170208868989
  15    -0.011655778317373
  16      -0.1660828923928
  17    -1.8303250959341e-16
  18      0.58618112486407
  19     -0.97851727987888
  20    -6.181687256574e-16
  21     0.037715412609917
  22      0.13520578485095
  23      -1.4288225244879
  24      0.12153472255006
  25     -0.14080951057506
  26    -9.6257960062426e-16
  27       1.7864456255682
  28      -1.8462880595418
  29    1.0740761566619e-15
  30      0.13016291583408
  31     -0.92199228627821
  32     0.037715412608691
  33      0.13520578485197
  34      -1.4288225244401
  35     -0.12153472255154
  36      0.14080951057266
  37    -1.6797043401704e-15
  38      -1.7864456256078
  39        1.846288059525
  40    1.8340780471597e-15
  41      0.13016291583249
  42     -0.92199228627401
  43    -0.086167924565839
  44     0.086741827353426
  45       2.7170208869098
  46     0.011655778317267
  47      0.16608289239255
  48    -8.2014564595437e-17
  49     -0.58618112486001
  50      0.97851727988631
  51    -5.7663210300418e-16
  52     0.035674015532502
  53     0.019558562975245
  54     -0.98250597173685
  55     0.015030204343814
  56    -0.012108563434779
  57    -1.2646126690411e-16
  58      0.66247197217006
  59    -0.044062849503982
  60    2.371972816904e-16
  61    -0.026314103848586
  62      0.62224797266297
 Sym= A
 Ene=    0.5156330141
 Spin= Alpha
 Occup=    0.00000
   1     0.074770274057646
   2      0.35522156854151
   3    -0.020172763827726
   4      0.11029669820584
   5     -0.15747081587477
   6      0.17182433726084
   7     0.044891674458576
   8    -6.4116128547722e-16
   9      0.19064181585599
  10     0.045173152210027
  11    7.0084824610733e-16
  12     0.038977978503964
  13    -0.066761931108332
  14     -0.35851926456968
  15    -0.066128419860456
  16      0.10459112274526
  17    3.8025466543055e-16
  18     -0.33909101077668
  19     -0.10031833794024
  20    1.2011642000689e-16
  21     -0.13922092323462
  22       0.1536247146118
  23       4.2542379285971
  24     0.097365687660069
  25      0.21123226228047
  26    -2.3433760950133e-16
  27       2.5582729090549
  28       1.5888119778686
  29    9.9781998665164e-17
  30    -0.013583638032829
  31       0.3383604072621
  32      0.13922092323502
  33     -0.15362471460948
  34       -4.254237928615
  35     0.097365687661731
  36      0.21123226228187
  37    7.9486348340344e-16
  38       2.5582729090305
  39       1.5888119778937
  40    -1.1570162267702e-15
  41     0.013583638035007
  42     -0.33836040727574
  43    -0.038977978504679
  44     0.066761931108983
  45       0.3585192645979
  46    -0.066128419860521
  47      0.10459112274614
  48    -1.4340901642829e-16
  49     -0.33909101078869
  50     -0.10031833793046
  51    6.8069420875581e-16
  52     0.020172763827839
  53     -0.11029669820456
  54       0.1574708158687
  55      0.17182433725979
  56     0.044891674457949
  57    1.7148528838635e-16
  58       0.1906418158602
  59      0.04517315220701
  60    -3.67968255565e-16
  61    -0.074770274057309
  62     -0.35522156853369
 Sym= A
 Ene=    0.5800933183
 Spin= Alpha
 Occup=    0.00000
   1    -0.056006824331801
   2     -0.62276924349991
   3     0.052938497565942
   4    -0.094433113751661
   5      -1.4435724592426
   6     -0.15046504509385
   7     -0.19787841983375
   8    -1.7457677879524e-16
   9      -1.1379522739794
  10     -0.93481642549099
  11    4.1572203834444e-16
  12    -0.044083465482886
  13      0.11319043711375
  14      0.65913180183212
  15     -0.23006320891223
  16    -0.047289375631774
  17    -3.9817820135801e-17
  18      -1.7630055150199
  19     -0.26603129406605
  20    2.5217380737791e-16
  21     -0.01018737738588
  22    0.0051108477094409
  23      0.29211240087596
  24     0.097480051430003
  25     0.043596768917679
  26    1.0720744083492e-15
  27     -0.86564035596172
  28       1.5742480506682
  29    -1.4195287595351e-15
  30    -0.028424549861291
  31       1.1583964655553
  32    -0.010187377384237
  33    0.0051108477094277
  34      0.29211240082023
  35    -0.097480051435688
  36    -0.043596768912402
  37    1.4836762597823e-15
  38      0.86564035596344
  39       -1.574248050638
  40    -1.4991734761029e-15
  41    -0.028424549859654
  42        1.158396465542
  43    -0.044083465482707
  44      0.11319043711494
  45      0.65913180180757
  46      0.23006320890065
  47     0.047289375633367
  48    -7.5899284907069e-17
  49       1.7630055149627
  50      0.26603129405911
  51    6.3766318241625e-16
  52     0.052938497564366
  53    -0.094433113749219
  54      -1.4435724591953
  55      0.15046504509207
  56      0.19787841982858
  57    2.2937684880905e-16
  58       1.1379522739462
  59      0.93481642546242
  60    -4.0039472901388e-16
  61    -0.056006824331459
  62     -0.62276924348573
 Sym= A
 Ene=     0.617777196
 Spin= Alpha
 Occup=    0.00000
   1     0.011833335526197
   2      0.50163860064382
   3    -0.053007631387766
   4     0.089104550587337
   5       1.5239224371341
   6     0.089134412895729
   7      0.17379671850775
   8    4.2372610630979e-16
   9        1.124499219329
  10      0.94030659029952
  11    -4.1180745450799e-16
  12     0.013451105040018
  13     0.016122943325051
  14     -0.90449218564282
  15      0.37446224338884
  16    -0.024078816910066
  17    -3.4984917190702e-16
  18       1.7872667300582
  19      0.25967429296681
  20    2.0485271536432e-16
  21     0.035073896655246
  22     0.033975223446922
  23      -1.3835754744895
  24      0.19838508475491
  25     -0.11805265246198
  26    -1.1185784768681e-15
  27       0.1089969376213
  28     -0.83868417662749
  29    8.0906120825101e-16
  30     0.049453599251412
  31     -0.41537493095936
  32    -0.035073896655494
  33    -0.033975223445918
  34       1.3835754745019
  35      0.19838508474858
  36     -0.11805265246249
  37    -1.9001618965923e-15
  38      0.10899693765439
  39     -0.83868417667618
  40    2.2939561963323e-15
  41    -0.049453599251865
  42      0.41537493099315
  43    -0.013451105041375
  44    -0.016122943320554
  45      0.90449218565589
  46      0.37446224339485
  47    -0.024078816908592
  48    -2.0849935268673e-16
  49       1.7872667301114
  50      0.25967429297336
  51    -5.9337936635425e-16
  52     0.053007631389314
  53    -0.089104550590713
  54      -1.5239224371744
  55     0.089134412901558
  56        0.173796718514
  57    -7.6976804564626e-17
  58       1.1244992193613
  59      0.94030659032699
  60    3.4825731547329e-16
  61    -0.011833335527823
  62     -0.50163860066412
 Sym= A
 Ene=    0.7168554951
 Spin= Alpha
 Occup=    0.00000
   1    -4.7132555540589e-16
   2    4.3962262997024e-15
   3    -7.456620320777e-17
   4    3.5682681813098e-16
   5    2.5521295268417e-15
   6    -1.3194733659876e-15
   7    2.0293059736943e-15
   8      0.10658795349709
   9    3.6749483889382e-15
  10    2.8024863569406e-15
  11     -0.12972114798654
  12    -1.8120658518839e-16
  13    -9.3564980197671e-17
  14    5.1438335321151e-15
  15    -4.5503067005342e-16
  16    2.0392851293728e-15
  17       0.1643324074689
  18    9.7827401790175e-15
  19    -4.8085368253383e-15
  20     0.074132754420125
  21    1.0040105565098e-17
  22    -8.5350714003058e-15
  23    1.9732263858864e-15
  24    -1.4638944664743e-15
  25    -1.3535842283857e-15
  26      0.69939597423828
  27    9.6637249445712e-15
  28    -1.3553073335271e-14
  29      -0.6753636529953
  30    -2.8926614389533e-15
  31    -1.0386155958124e-14
  32    -1.0156327919591e-16
  33    -6.5978472914671e-15
  34    5.388063915429e-15
  35    3.0132159336141e-16
  36    2.8324085165813e-15
  37      0.69939597430521
  38    -8.7776950124072e-15
  39    4.650751055566e-15
  40     -0.67536365319971
  41    -5.5318091466507e-16
  42    -4.9827184901448e-15
  43    -1.8863369445019e-16
  44    4.9209180282186e-16
  45    7.4738606355092e-15
  46    3.0590978863162e-15
  47    1.751632008713e-15
  48      0.16433240747323
  49    -3.2521315419862e-15
  50    2.4015788816081e-15
  51     0.074132754510862
  52    2.209168833539e-16
  53    -5.7110344229805e-16
  54    -1.3143415282466e-15
  55    8.5955323722163e-17
  56    -9.3362428475257e-16
  57      0.10658795352845
  58    3.2776355743973e-15
  59    2.8057251767218e-15
  60     -0.12972114805107
  61    -8.264230654751e-16
  62    9.7271558398824e-16
 Sym= A
 Ene=    0.7491627805
 Spin= Alpha
 Occup=    0.00000
   1    0.0045823006362248
   2     0.044782369615491
   3     0.012467137607812
   4     0.060646291439304
   5     -0.59247895261876
   6      0.15379417781864
   7     0.029084078561539
   8    1.8221236778518e-14
   9     -0.46766365127602
  10     -0.31991227801214
  11    -2.8170994203831e-14
  12     0.026680854642408
  13     -0.15372064054532
  14      0.40724939397728
  15     -0.22535591047986
  16    -0.099223172953948
  17    -1.740553525127e-15
  18     -0.48137502341576
  19    -0.055095733590907
  20    3.3352053708404e-14
  21    -0.036423384512017
  22     -0.60209702492069
  23      0.47507103872026
  24     -0.48336591851718
  25       -0.162999296913
  26    4.1291560941472e-14
  27      0.55098866092352
  28       0.6583425470402
  29    -8.8947855889287e-14
  30     -0.17963764862277
  31       0.2896998796486
  32    -0.036423384512627
  33     -0.60209702492116
  34       0.4750710387354
  35      0.48336591852051
  36      0.16299929690669
  37    -4.953222690707e-14
  38     -0.55098866092351
  39     -0.65834254703555
  40    9.6211412908399e-14
  41     -0.17963764862833
  42      0.28969987964614
  43     0.026680854642588
  44     -0.15372064054634
  45      0.40724939397416
  46      0.22535591047923
  47     0.099223172950209
  48    -1.3388009286601e-15
  49      0.48137502342645
  50     0.055095733591313
  51    -3.2073544028044e-14
  52     0.012467137607896
  53       0.0606462914372
  54     -0.59247895262081
  55     -0.15379417781479
  56    -0.029084078560102
  57    -1.9153217690138e-14
  58      0.46766365127205
  59      0.31991227801199
  60    2.8588993602871e-14
  61    0.0045823006389062
  62     0.044782369611609
 Sym= A
 Ene=    0.7626388139
 Spin= Alpha
 Occup=    0.00000
   1    2.0808187982873e-14
   2    -1.4573984732926e-14
   3    -1.7632628876397e-16
   4    -6.9237616898577e-15
   5    -1.9767299781535e-14
   6    -1.435564584167e-14
   7    -2.8594622656642e-15
   8     -0.27073542891961
   9    2.0881966960196e-14
  10    3.215194721845e-15
  11      0.40286822623318
  12    2.0749849452203e-15
  13    -1.8381561661927e-14
  14    9.4612498217578e-15
  15     4.09332577125e-15
  16    2.1866980125298e-14
  17    -0.0079836512318598
  18    -5.6268140922485e-14
  19    -1.0117550744634e-14
  20     -0.43972779296147
  21    -4.4993159549662e-15
  22    -5.0521493493081e-14
  23    7.514292081716e-14
  24    -5.8437839581693e-14
  25    2.4301822844675e-14
  26     -0.63116606407811
  27    5.0259361847293e-14
  28    -1.8432775626342e-14
  29       1.2752591090594
  30    -5.9667783869527e-14
  31    1.670003407451e-15
  32    -1.3929958217369e-15
  33    -2.7311598104622e-14
  34    -2.006421598542e-14
  35    1.8215718476174e-14
  36    4.3213909979561e-14
  37      0.63116606397878
  38    -3.9270009097901e-14
  39    -1.0855484135419e-13
  40      -1.2752591089705
  41    3.5509934573412e-14
  42    4.0822252899332e-14
  43    2.1325646947725e-15
  44    -2.7301950972226e-15
  45    6.0241931006574e-14
  46    3.8599834464532e-14
  47    2.8484874101767e-14
  48    0.0079836512064882
  49    1.3360154722744e-14
  50    6.3839972527808e-15
  51      0.43972779296303
  52    1.7135780011989e-15
  53    2.0190898184112e-14
  54    -7.4999826341937e-14
  55    -4.231883032416e-14
  56    -8.7376029109475e-15
  57      0.27073542889698
  58    9.6097964194343e-14
  59    5.163654069866e-14
  60     -0.40286822621483
  61    -1.9755117815586e-14
  62    2.239032615419e-14
 Sym= A
 Ene=    0.8038508308
 Spin= Alpha
 Occup=    0.00000
   1     -0.18852229253795
   2      0.16411500038723
   3    0.0070405498592013
   4       0.1300408775112
   5     -0.25204507873311
   6      0.24056319197923
   7     0.056239944995169
   8    -3.1499589359428e-14
   9     -0.50127588389281
  10     -0.25214356641636
  11    4.8123416762847e-14
  12    0.00084446581396527
  13     0.060452018619969
  14      0.21191992712695
  15      -0.1858637361957
  16     -0.22072153191417
  17    2.5135145302767e-15
  18      0.17850964867863
  19     0.019779935481075
  20    -5.6110172935047e-14
  21     0.013759186808532
  22     0.087868075057274
  23     -0.38072659716809
  24      0.17982396954031
  25     -0.31369594746155
  26    -7.2513936031655e-14
  27     -0.05268119863411
  28      0.58349119726223
  29    1.5098007928976e-13
  30      0.41164998667615
  31      0.18020463197808
  32    -0.013759186807823
  33    -0.087868075056538
  34      0.38072659717629
  35      0.17982396952822
  36     -0.31369594746128
  37    7.7829441555681e-14
  38    -0.052681198614178
  39      0.58349119726821
  40    -1.5567562144824e-13
  41     -0.41164998667526
  42     -0.18020463198463
  43    -0.00084446581433291
  44    -0.060452018619078
  45     -0.21191992714246
  46     -0.18586373619985
  47     -0.22072153191416
  48    -3.1832888148854e-17
  49      0.17850964867045
  50     0.019779935475707
  51    5.4942335559327e-14
  52    -0.0070405498593607
  53     -0.13004087751449
  54      0.25204507874881
  55      0.24056319198208
  56     0.056239944995554
  57    3.2691626632903e-14
  58     -0.50127588390147
  59     -0.25214356642056
  60    -4.905915714313e-14
  61      0.18852229253488
  62     -0.16411500038892
 Sym= A
 Ene=    0.8356986733
 Spin= Alpha
 Occup=    0.00000
   1      0.18583485781654
   2    0.0087979813290483
   3    -0.0071744254261713
   4      0.21675002028701
   5     -0.46741061980088
   6       0.1860740108935
   7    -0.023122577206921
   8    2.789677843873e-15
   9     -0.24089318820254
  10    -0.024699778839878
  11    -4.2494560223652e-15
  12     0.021611050041093
  13     0.046734236101057
  14      0.51949878862194
  15     -0.12188168590166
  16      0.16954341064504
  17    5.3385103015995e-16
  18     -0.14260314746722
  19     -0.16017427817044
  20    4.6199915303247e-15
  21    -0.026521407918293
  22      0.84999815628067
  23       -1.106519020077
  24     -0.46823810888684
  25      0.32496475716008
  26    7.8633818784668e-15
  27      0.59886834930294
  28     -0.16008797903304
  29    -1.3788257272656e-14
  30      0.16404602923732
  31      0.24475226115786
  32    -0.026521407919568
  33      0.84999815627361
  34      -1.1065190200263
  35      0.46823810888057
  36     -0.32496475716322
  37    -2.0442006282201e-15
  38     -0.59886834931237
  39      0.16008797902137
  40    8.9008795922311e-15
  41      0.16404602922982
  42      0.24475226116151
  43     0.021611050041183
  44     0.046734236097904
  45      0.51949878861704
  46      0.12188168590056
  47     -0.16954341064644
  48    3.2893331440795e-15
  49      0.14260314748176
  50      0.16017427817186
  51    -6.9586727866244e-15
  52    -0.0071744254260723
  53      0.21675002028355
  54     -0.46741061980354
  55     -0.18607401088955
  56     0.023122577208063
  57    -4.3426090612452e-16
  58      0.24089318819974
  59     0.024699778842374
  60    2.3237318794148e-15
  61      0.18583485781639
  62    0.0087979813259626
 Sym= A
 Ene=    0.9141480321
 Spin= Alpha
 Occup=    0.00000
   1     -0.22648823055861
   2    -0.070219544645621
   3    0.0093309683663267
   4     -0.19893208710764
   5    -0.046945581639981
   6    -0.045489716331752
   7    -0.086831555980273
   8    2.644537207773e-15
   9     -0.13521830714532
  10      -0.1512028645531
  11    -2.7717688837405e-15
  12    0.0026758621216282
  13     -0.21533453748269
  14     -0.17776089015232
  15     0.046437235694081
  16      -0.1187676983907
  17    1.6711030311475e-15
  18     -0.49247805577638
  19     0.029527516678075
  20    -7.1873020154554e-16
  21    -0.049915522229307
  22     -0.50531921235889
  23       2.0596985092809
  24      0.73882977325856
  25     0.024642027570685
  26    8.1159550009474e-16
  27     -0.12260087829458
  28      0.52178809740786
  29    -9.9492344099129e-16
  30     -0.30393140345887
  31      0.17739910346184
  32     0.049915522229067
  33      0.50531921236833
  34      -2.0596985092916
  35      0.73882977326353
  36     0.024642027566264
  37    -7.6771485236669e-16
  38     -0.12260087830077
  39      0.52178809741383
  40    8.7871096512379e-16
  41      0.30393140346199
  42     -0.17739910346345
  43    -0.0026758621212555
  44      0.21533453748131
  45      0.17776089015985
  46     0.046437235694428
  47     -0.11876769839224
  48    -8.223368748522e-16
  49     -0.49247805577664
  50     0.029527516678936
  51    1.2421424125858e-15
  52    -0.0093309683663781
  53      0.19893208710853
  54     0.046945581636787
  55    -0.045489716336516
  56    -0.086831555978106
  57    7.6120918336965e-16
  58     -0.13521830714102
  59     -0.15120286455572
  60    -1.3943521076045e-15
  61      0.22648823055891
  62     0.070219544648366
 Sym= A
 Ene=    0.9345619051
 Spin= Alpha
 Occup=    0.00000
   1    -2.7033623183009e-14
   2    -8.2565720324339e-15
   3    -2.5466608611382e-15
   4    3.018199129816e-14
   5    -1.3806202248951e-14
   6    -1.3467891254427e-14
   7    3.7655352174339e-14
   8      0.63920723645451
   9    6.4564857056185e-16
  10    -5.3291072104684e-14
  11      -0.7895650367164
  12    -1.7007917061106e-15
  13    2.2436114194711e-14
  14    1.3835836902292e-14
  15    -2.5420886710597e-14
  16    5.635509140451e-14
  17      0.16985964071441
  18    4.1774606608798e-14
  19    -6.1996427382184e-14
  20     0.016400983360484
  21    -2.0759916589986e-15
  22    -1.3219631529561e-14
  23    -1.2629816731644e-14
  24    7.0941164559376e-15
  25    -1.673556408524e-15
  26     -0.17348741458167
  27    1.1358382173157e-14
  28    -1.5041573617902e-14
  29      0.18070945241529
  30    -1.6091547987659e-14
  31    2.6082163615501e-15
  32    1.5376464632146e-15
  33    -1.0400462830295e-14
  34    3.3567676278451e-14
  35    4.7556908421101e-15
  36    -1.6705718813391e-14
  37     -0.17348741455165
  38    3.4092186632957e-15
  39    3.3152205440054e-14
  40      0.18070945239121
  41    1.2336588723464e-14
  42    -2.9673962130299e-14
  43    1.1385057430272e-15
  44    -1.0717414177171e-14
  45    6.5298698617029e-15
  46    -1.3502457588158e-14
  47    2.2802486208865e-14
  48      0.16985964073362
  49    1.9303232484956e-14
  50    -2.8399942220281e-14
  51     0.016400983316051
  52    1.0369983368769e-15
  53    -1.2513906802853e-14
  54    2.3580915814147e-15
  55    -1.4089034572434e-14
  56     1.76418255308e-14
  57      0.63920723643361
  58    1.1526060798327e-14
  59    -2.0360985216532e-14
  60      -0.7895650366692
  61    6.1572758986467e-15
  62     5.07169121103e-15
 Sym= A
 Ene=    0.9500938331
 Spin= Alpha
 Occup=    0.00000
   1    9.6742053753347e-14
   2    1.0102285425771e-13
   3    1.451969145589e-14
   4    -2.0398405817889e-13
   5    1.0046616696976e-13
   6    1.7023649726413e-13
   7    -2.6862037846084e-13
   8     -0.38213129229611
   9    -9.1349713988133e-14
  10    3.5863866496151e-13
  11      0.23990216529611
  12    1.3872306034436e-14
  13    -1.6902931780166e-13
  14    -5.0266830684003e-14
  15    1.8648270032746e-13
  16    -3.3065815993466e-13
  17     -0.56505140080523
  18    -2.4003166325114e-13
  19    3.7756904556458e-13
  20      0.76459853282045
  21    1.2393026519763e-14
  22    9.413990069771e-14
  23    6.2361154297023e-14
  24    -1.5245758828622e-14
  25    -1.7778758091369e-15
  26      0.12037348485408
  27    -1.4254814951712e-13
  28    6.7666536406546e-14
  29     -0.61271190248869
  30    9.2411476076859e-14
  31    -3.8791137891813e-14
  32    -6.2354339761148e-16
  33    6.2487328653992e-14
  34    2.9185785552486e-14
  35    -4.9186589203204e-14
  36    6.7370199747573e-14
  37     -0.12037348484159
  38    7.1478531750931e-14
  39    -1.7879645189745e-13
  40        0.612711902476
  41    4.6830200264824e-15
  42     7.67614799909e-14
  43    2.2505069122979e-15
  44    -4.4275687606772e-14
  45    -7.6429515000197e-14
  46    -3.9082613553056e-14
  47    8.309058274595e-14
  48      0.56505140080309
  49    4.769656892106e-14
  50    -9.0489622500984e-14
  51     -0.76459853281028
  52    3.3315104411879e-15
  53    -5.5914716977695e-14
  54    5.242462802652e-14
  55    -2.5208828797481e-14
  56    5.8840367007782e-14
  57      0.38213129229341
  58    -1.0993369725979e-15
  59    -8.2587837782021e-14
  60     -0.23990216529919
  61    1.3246017312263e-14
  62    2.3675651641844e-14
 Sym= A
 Ene=    0.9636406142
 Spin= Alpha
 Occup=    0.00000
   1      0.16082334524344
   2     0.098684937008025
   3     0.019084777543722
   4     -0.23735635035504
   5     0.096711086680802
   6      0.20389537413069
   7     -0.32432469493772
   8    1.5541735862068e-13
   9      -0.1121620560339
  10      0.42724607175872
  11    -1.1243268599391e-13
  12     0.018136744729304
  13     -0.19036663511208
  14    0.0090381287144488
  15      0.23017404703985
  16     -0.43075453867872
  17    2.0190029199789e-13
  18     -0.31243705611257
  19      0.51427860309444
  20    -2.5771751189749e-13
  21     0.021477174625795
  22     0.048126729984062
  23     0.090385113264735
  24     -0.10206250713322
  25      0.12563714644819
  26    -3.6263722940267e-14
  27     -0.12145232275025
  28     -0.20329560265508
  29    1.9025203405391e-13
  30      0.15111143853567
  31     -0.21091255501986
  32    -0.021477174621779
  33    -0.048126729931915
  34    -0.090385113229238
  35     -0.10206250714433
  36      0.12563714646991
  37    9.3588323695758e-15
  38     -0.12145232267876
  39     -0.20329560273106
  40    -1.6628125198312e-13
  41     -0.15111143850184
  42      0.21091255502669
  43    -0.018136744723647
  44       0.1903666350381
  45    -0.0090381287547241
  46      0.23017404696296
  47     -0.43075453853645
  48    -1.8009072231298e-13
  49      -0.3124370560156
  50      0.51427860293263
  51    2.7725236899336e-13
  52     -0.01908477753758
  53      0.23735635026551
  54    -0.096711086627489
  55      0.20389537406267
  56     -0.32432469482542
  57    -3.9383982427883e-14
  58     -0.11216205600173
  59      0.42724607160775
  60    -3.628042204367e-14
  61     -0.16082334520691
  62    -0.098684936964236
 Sym= A
 Ene=    0.9673036844
 Spin= Alpha
 Occup=    0.00000
   1     -0.11307777975278
   2     -0.13314131173188
   3    -0.018860558873708
   4      0.27269927532558
   5     -0.15647091971479
   6     -0.20771011363082
   7      0.34402110185809
   8    -1.8487777562082e-13
   9     0.099150173145784
  10     -0.45878933614442
  11    1.0614077508933e-13
  12    -0.017322783451634
  13      0.22699510280847
  14      0.12023574859416
  15     -0.23502778239446
  16      0.43703761235236
  17    -2.9458002013567e-13
  18      0.30374558440047
  19     -0.49582572430485
  20    3.9850137422908e-13
  21     -0.01221605969808
  22     -0.16543492500861
  23    -0.099952693722535
  24    -0.031116247744119
  25     0.066672534248437
  26    4.704926612405e-14
  27      0.21706090236702
  28     -0.24289382748639
  29    -2.8862882141934e-13
  30     -0.10459134451685
  31    -0.028703419744652
  32    -0.012216059704948
  33     -0.16543492502143
  34    -0.099952693765797
  35     0.031116247714482
  36    -0.066672534206532
  37    -4.2652866493975e-14
  38     -0.21706090240657
  39      0.24289382742276
  40    2.8360624939211e-13
  41     -0.10459134456637
  42     -0.02870341967502
  43    -0.017322783457459
  44      0.22699510287055
  45      0.12023574859348
  46      0.23502778246897
  47     -0.43703761249571
  48    2.8214676475576e-13
  49     -0.30374558450563
  50      0.49582572447567
  51    -4.007162662254e-13
  52    -0.018860558880053
  53      0.27269927540325
  54     -0.15647091974571
  55      0.20771011369492
  56     -0.34402110196293
  57    1.4160096898588e-13
  58     -0.09915017318084
  59      0.45878933628036
  60    -5.2694044635857e-14
  61     -0.11307777980557
  62     -0.13314131176219
 Sym= A
 Ene=    0.9925991479
 Spin= Alpha
 Occup=    0.00000
   1     -0.42572971427608
   2       0.3172419682533
   3    -0.015709268505778
   4    -0.011462154891401
   5     -0.10985526192608
   6      0.55418002034807
   7      -0.1529550047661
   8    -1.4053408746482e-13
   9      -0.6004575433057
  10      0.15713770088568
  11    2.2951692084777e-13
  12      0.01902666595497
  13     -0.13111507483037
  14      0.27437403610869
  15      0.13669900497431
  16       0.3765224968655
  17    8.3309377797139e-14
  18      0.08587244540082
  19     -0.42370332708693
  20    -1.6056382722636e-13
  21    -0.0056701077949679
  22     -0.18436647382987
  23      0.17017672813368
  24     0.097047767219783
  25     0.051466453113688
  26    1.1200612523337e-13
  27     -0.16612408134522
  28    -0.097985111592512
  29    -1.134921361846e-13
  30      0.04157896620747
  31     -0.15398682188465
  32    -0.0056701077954784
  33     -0.18436647383419
  34      0.17017672826033
  35    -0.097047767233177
  36    -0.051466453112387
  37    -1.0268949436865e-13
  38      0.16612408130864
  39     0.097985111534117
  40    8.8990359909048e-14
  41     0.041578966216916
  42     -0.15398682186581
  43     0.019026665953443
  44     -0.13111507481844
  45      0.27437403606019
  46     -0.13669900495837
  47     -0.37652249681936
  48    -1.194882935311e-13
  49    -0.085872445370734
  50       0.4237033270325
  51     2.17230838157e-13
  52    -0.015709268504406
  53    -0.011462154885333
  54     -0.10985526192526
  55     -0.55418002029223
  56      0.15295500474714
  57    1.2918484062556e-13
  58      0.60045754324982
  59     -0.15713770085034
  60    -2.3438431093282e-13
  61     -0.42572971424354
  62      0.31724196822127
 Sym= A
 Ene=    0.9953360043
 Spin= Alpha
 Occup=    0.00000
   1    8.1933903329089e-14
   2    -7.3482510299697e-14
   3    1.8951823316475e-15
   4    1.4367879550628e-14
   5    2.7695620245629e-14
   6    -1.2348841546974e-13
   7    5.474365413143e-14
   8     -0.46968108633849
   9    1.283647194757e-13
  10    -4.6546454099441e-14
  11      0.80724921107456
  12    -5.7024601824708e-15
  13    4.2474245765427e-14
  14    -1.3595373186341e-14
  15    -4.5756405979771e-14
  16    -2.4285918080607e-14
  17      0.35155400150653
  18    4.0742058744716e-14
  19    2.1352363872221e-14
  20     -0.66091852760772
  21    7.4129022089299e-16
  22    3.8745554600009e-14
  23    -1.6629132904631e-13
  24    -3.6806097663712e-14
  25    -6.3038240508713e-15
  26      0.36160741510679
  27    3.7964636765834e-14
  28    -6.8468767554904e-14
  29     -0.32965504492709
  30    -3.2603632053474e-14
  31    1.2643890849845e-14
  32    1.8959749901834e-15
  33    3.8379461119288e-14
  34    8.1768480517506e-14
  35    2.3707043493658e-14
  36    -3.8424094896403e-15
  37     -0.36160741512787
  38    -1.0044169824185e-13
  39    -2.3998666684397e-14
  40      0.32965504497721
  41    2.4643344910477e-15
  42    2.7489617753946e-14
  43    -7.0389236866617e-15
  44    5.119718865199e-14
  45    -1.0872825846825e-13
  46    5.7098832117906e-14
  47    1.5472974917784e-13
  48     -0.35155400145796
  49    4.4292741363307e-14
  50    -1.7702815836475e-13
  51      0.66091852751675
  52    6.1892736145782e-15
  53    6.7875682728121e-15
  54    3.9047208119931e-14
  55    2.1686931060032e-13
  56    -6.5736755655226e-14
  57      0.46968108637359
  58    -2.3050735840684e-13
  59    8.0164788861069e-14
  60     -0.80724921107868
  61    1.6232803725855e-13
  62    -1.2858392598637e-13
 Sym= A
 Ene=     1.007476408
 Spin= Alpha
 Occup=    0.00000
   1     -0.32211887304463
   2      0.31399551469768
   3    -0.012085395846757
   4    -0.064970401900246
   5    -0.029200853809606
   6       0.5413274295203
   7     -0.19509205457829
   8    5.0071971209533e-14
   9     -0.55359821003232
  10      0.33889994598333
  11    -7.1971325660957e-14
  12     0.014431815965112
  13     -0.12484150282784
  14      0.47040379978647
  15      0.15236903216668
  16      0.43313598775665
  17    -1.1647858736659e-14
  18      0.26017445421966
  19     -0.52587221836107
  20    2.619658537487e-14
  21    0.0030578968034997
  22     0.029588056908654
  23      -1.1322984210526
  24     -0.10056939972824
  25    -0.00068544499153116
  26    -4.3163255937241e-14
  27     -0.33752254572051
  28     -0.50299443707355
  29    5.7686966859156e-14
  30    -0.097901474776524
  31     -0.14905423430498
  32    -0.0030578968029792
  33    -0.029588056890817
  34       1.1322984210323
  35     -0.10056939971868
  36    -0.00068544498409639
  37    3.9563852601689e-14
  38     -0.33752254573798
  39      -0.5029944370898
  40    -4.0287718823455e-14
  41      0.09790147477069
  42      0.14905423432591
  43    -0.014431815967234
  44      0.12484150284309
  45     -0.47040379981759
  46      0.15236903218096
  47      0.43313598779305
  48     3.89890774775e-14
  49       0.2601744542283
  50     -0.52587221840041
  51    -8.0137630601278e-14
  52     0.012085395848251
  53     0.064970401902179
  54      0.02920085382076
  55      0.54132742957933
  56     -0.19509205459572
  57    -6.4247194791484e-14
  58     -0.55359821009562
  59      0.33889994600011
  60    1.0707288170451e-13
  61      0.32211887308919
  62     -0.31399551473153
 Sym= A
 Ene=     1.051814083
 Spin= Alpha
 Occup=    0.00000
   1    1.1676972661597e-14
   2    -1.2064673368518e-14
   3    1.2313696712342e-15
   4    -1.2012061484068e-14
   5    4.6686562797014e-14
   6    6.7749915592376e-16
   7    6.4615327461286e-15
   8       0.1176344404032
   9    5.1195938744612e-15
  10    8.2802108580887e-15
  11     -0.51319825486515
  12    -4.0425610300211e-16
  13    7.5887913298085e-15
  14    2.3940308216727e-14
  15    -1.1416915991336e-14
  16    1.2164428822752e-15
  17     -0.62915840581419
  18    6.1476760144135e-14
  19    8.8975939831494e-15
  20       1.1227855887753
  21    1.0355744676843e-15
  22    -2.4726448812264e-14
  23    -7.8286513093965e-16
  24    -1.6489544336193e-15
  25    4.3688242906078e-14
  26     0.085758096167051
  27    -1.8063373985396e-15
  28    -1.7376278673518e-13
  29     -0.37852439143687
  30    8.3964466928101e-15
  31    -1.1047860047395e-13
  32    5.4490464383019e-16
  33    -1.7937021251078e-14
  34    9.6490221788694e-14
  35    2.5484331410868e-15
  36    -1.8883938084594e-14
  37     0.085758096128366
  38    -5.5488614421999e-14
  39    7.7103099699983e-14
  40     -0.37852439141307
  41    4.9046572221421e-15
  42    -5.277176958691e-14
  43    -1.1210259957863e-15
  44    4.9218107380909e-15
  45    1.2398701804349e-15
  46    1.1858146256424e-14
  47    2.3899372746282e-14
  48     -0.62915840584564
  49    -1.6128698352872e-14
  50    -2.1291427419534e-14
  51       1.1227855888275
  52    2.0421251418617e-15
  53    -1.335656826684e-14
  54    2.7182578924113e-14
  55    2.8848069173881e-14
  56    -1.9233488263008e-15
  57      0.11763444043739
  58    -3.3716513772317e-14
  59    -1.1678126692149e-14
  60     -0.51319825491853
  61    3.5235230303044e-14
  62    -1.8929416102284e-14
 Sym= A
 Ene=      1.06189556
 Spin= Alpha
 Occup=    0.00000
   1      0.11498475098511
   2      0.16426396763204
   3    -0.011088456953841
   4      0.17884540730515
   5     -0.80933860477631
   6    -0.029741871422717
   7     -0.13578132192899
   8     5.08821359738e-15
   9     -0.10187321079012
  10      0.25275029269756
  11    -1.5819701896193e-14
  12    -0.016148844753266
  13      0.14450497622111
  14     -0.61760079843924
  15      0.21532661432697
  16      0.20327202770138
  17    -1.5393749798957e-14
  18     -0.87740419804481
  19     -0.58618979076774
  20    3.0342218874622e-14
  21    -0.017520744308174
  22      0.32892338334726
  23      -1.1321984455368
  24    -0.038254541256545
  25     -0.72550675531385
  26    6.0806693287455e-15
  27     -0.23955928497489
  28       2.8434481881402
  29    -1.4845550714053e-14
  30     -0.13529459150303
  31       1.8938818192589
  32    -0.017520744307816
  33      0.32892338334633
  34      -1.1321984455765
  35     0.038254541255487
  36      0.72550675529844
  37    -1.5341535210017e-15
  38      0.23955928500284
  39      -2.8434481880907
  40    -1.1428857466755e-14
  41     -0.13529459149942
  42        1.893881819229
  43    -0.016148844753041
  44      0.14450497622381
  45     -0.61760079843771
  46     -0.21532661432565
  47     -0.20327202770141
  48    -2.7960060164268e-14
  49      0.87740419802425
  50       0.5861897907557
  51    5.141954788259e-14
  52     -0.01108845695389
  53      0.17884540730438
  54       -0.809338604758
  55     0.029741871417663
  56      0.13578132192322
  57    1.291052599328e-14
  58       0.1018732107912
  59     -0.25275029269081
  60    -3.2620775379787e-14
  61      0.11498475098242
  62      0.16426396762642
 Sym= A
 Ene=     1.088180487
 Spin= Alpha
 Occup=    0.00000
   1     0.060275245949398
   2      0.29475180316115
   3    -0.0036937613144229
   4     0.030635464861314
   5     -0.68566143806111
   6     -0.17208299026147
   7      -0.2864214564549
   8    6.831218128934e-15
   9     0.066154023471789
  10      0.38389363990804
  11    -1.3895801894023e-14
  12    -0.010842226992698
  13     -0.14590806167853
  14      0.11319913566511
  15     0.078457379498849
  16     0.064392327516954
  17    -7.2016216095802e-15
  18      -0.6688936778713
  19     -0.59308341627858
  20    1.6687286866295e-14
  21    -0.011703541796331
  22      0.27687769622857
  23      0.70655991669559
  24     -0.10199839156203
  25     -0.71886081650786
  26    2.050013895182e-15
  27       1.0954033232952
  28       1.9370475110404
  29    -5.2863155400396e-15
  30     -0.25658000507885
  31       1.4389478179287
  32      0.01170354179667
  33     -0.27687769624942
  34     -0.70655991666228
  35     -0.10199839156087
  36     -0.71886081653001
  37    1.0492430565518e-15
  38       1.0954033232737
  39       1.9370475111214
  40    -8.9863730272612e-15
  41      0.25658000508489
  42      -1.4389478179835
  43     0.010842226992247
  44      0.14590806168046
  45     -0.11319913564536
  46     0.078457379502948
  47     0.064392327514923
  48    -1.5895532221562e-14
  49      -0.6688936778911
  50     -0.59308341627207
  51    2.6537431793153e-14
  52    0.0036937613152035
  53    -0.030635464868081
  54      0.68566143807109
  55     -0.17208299026042
  56     -0.28642145645211
  57    7.4039875571419e-16
  58      0.06615402347133
  59      0.38389363989505
  60    -9.46128266883e-15
  61    -0.060275245942248
  62     -0.29475180316055
 Sym= A
 Ene=     1.101094869
 Spin= Alpha
 Occup=    0.00000
   1      0.59992163676125
   2     -0.14513643066929
   3     0.030655023728855
   4     -0.22774708022749
   5     -0.18276886004465
   6    -0.015686004009343
   7     -0.12259085890257
   8    1.5075763410208e-15
   9     -0.17468185454297
  10      0.61013774471619
  11    6.442116553175e-15
  12    -0.031734718123465
  13      0.23006027174197
  14       0.1368177746626
  15      0.08660841771258
  16      0.22091826201649
  17    1.4462553182898e-14
  18     -0.13982063386584
  19     -0.70855745023007
  20    -2.558887685158e-14
  21    0.00087641932334965
  22      -0.6773842233498
  23       0.6249653182874
  24    -0.050154697634706
  25      0.24035132036155
  26    -6.6608214506228e-15
  27      0.48824379947321
  28     -0.64270303515853
  29    1.4722224044063e-14
  30      0.14717509734202
  31     -0.51773885794257
  32    0.00087641932310768
  33     -0.67738422334106
  34      0.62496531831276
  35     0.050154697644313
  36     -0.24035132034688
  37    -1.0832313427936e-16
  38     -0.48824379951124
  39      0.64270303511848
  40    7.9392464756828e-15
  41      0.14717509733098
  42     -0.51773885791016
  43    -0.031734718123104
  44      0.23006027173314
  45        0.136817774674
  46    -0.086608417716343
  47     -0.22091826201415
  48    1.949362595015e-14
  49      0.13982063388298
  50      0.70855745023056
  51    -3.5918298375884e-14
  52     0.030655023727782
  53     -0.22774708021878
  54     -0.18276886006556
  55     0.015686004013824
  56      0.12259085890952
  57    -8.299888259676e-15
  58      0.17468185453511
  59     -0.61013774471456
  60    2.194201450529e-14
  61      0.59992163674643
  62     -0.14513643065131
 Sym= A
 Ene=     1.152483677
 Spin= Alpha
 Occup=    0.00000
   1       0.7251883850836
   2     -0.52588263642103
   3     0.044223185385932
   4      -0.4236556273978
   5      0.40576045225696
   6      0.05874703446899
   7     0.036365098266063
   8    1.257889303773e-15
   9      -0.2504409591049
  10      0.47450134739434
  11    -2.0847881366815e-15
  12    -0.025055801629709
  13      0.19657717158508
  14     -0.31456522065681
  15    -0.073084528255264
  16      0.19253411032742
  17    -8.2505860945289e-16
  18      0.21173864337061
  19      -0.5746992268645
  20    1.2037831277865e-15
  21    0.0012065013742773
  22     -0.13787216676978
  23      -0.4730344525982
  24      0.29235302906587
  25    -0.0076226506008353
  26    -1.5412017468028e-15
  27     -0.53203027096236
  28    -0.0040966283883915
  29    2.2720276696253e-15
  30      0.23273586538245
  31    -0.093269235318022
  32    -0.0012065013742784
  33      0.13787216678751
  34      0.47303445258622
  35      0.29235302906182
  36    -0.0076226505934374
  37    1.1743159437013e-15
  38     -0.53203027093686
  39    -0.0040966284151988
  40    -2.704613836853e-15
  41     -0.23273586538674
  42     0.093269235339373
  43     0.025055801630719
  44     -0.19657717159156
  45      0.31456522065084
  46    -0.073084528254605
  47      0.19253411033276
  48    -5.7069243123638e-17
  49      0.21173864337172
  50     -0.57469922688513
  51    1.9615639957046e-15
  52    -0.044223185386285
  53      0.42365562739697
  54     -0.40576045224186
  55     0.058747034463343
  56     0.036365098254153
  57    2.3789812584292e-15
  58     -0.25044095910056
  59      0.47450134742235
  60    -3.3891108269472e-15
  61     -0.72518838508938
  62      0.52588263640438
 Sym= A
 Ene=     1.191592016
 Spin= Alpha
 Occup=    0.00000
   1      0.41495941028695
   2      -1.1432004654264
   3     0.012679645078762
   4     -0.18487282262464
   5     0.096550155034052
   6      0.33381037630651
   7      0.59418368519619
   8    7.3151936155612e-16
   9     -0.61882313155883
  10      -1.0758045125379
  11    -1.0268935873038e-15
  12     0.018989863120654
  13    -0.023996121614882
  14     -0.28163037956615
  15      0.24473403248795
  16    -0.033305785719608
  17    -1.0045496359211e-15
  18     -0.89143755750319
  19      0.30035510444268
  20    2.387309895586e-15
  21    0.0019172709446161
  22     0.054572695063405
  23      0.36947976896774
  24      0.15858142552117
  25      -0.1739209430333
  26    1.4474252742081e-15
  27      -1.0128891381286
  28       1.3755206858896
  29    -2.7959269783883e-15
  30     0.053530714739256
  31      0.78070194708434
  32    0.0019172709447442
  33      0.05457269509828
  34      0.36947976873377
  35     -0.15858142555145
  36      0.17392094299172
  37    1.5756977442529e-16
  38       1.0128891382129
  39      -1.3755206857493
  40    -3.5468915849516e-16
  41     0.053530714783398
  42      0.78070194697801
  43     0.018989863117033
  44    -0.023996121569012
  45     -0.28163037965697
  46     -0.24473403244797
  47     0.033305785711479
  48    -1.9254363382654e-15
  49      0.89143755734904
  50     -0.30035510442529
  51    3.0498948968576e-15
  52     0.012679645079377
  53     -0.18487282261084
  54     0.096550155077913
  55     -0.33381037627574
  56     -0.59418368513096
  57    1.6052800582398e-16
  58      0.61882313149153
  59       1.0758045123814
  60    -1.1548997910623e-15
  61      0.41495941026702
  62      -1.1432004653175
 Sym= A
 Ene=     1.201529903
 Spin= Alpha
 Occup=    0.00000
   1        0.238967399911
   2     -0.91742100843818
   3    0.00062641800471176
   4     -0.15948410819628
   5     -0.30509749780885
   6      0.25717399119963
   7      0.53357463508359
   8    5.2061278815445e-16
   9     -0.56782950983094
  10      -1.1990847439054
  11    -9.7949182769863e-16
  12     0.025658341275556
  13     -0.33586740488853
  14      0.67593845710801
  15      0.31154478784319
  16    -0.036863705396983
  17    -8.9937525571244e-16
  18      -1.2050223398542
  19      0.07310022213485
  20    2.0795025847575e-15
  21    -8.7241742550485e-05
  22     -0.34903761935101
  23        1.966951361905
  24     -0.20852242834619
  25     -0.30302689353418
  26    7.3105496977431e-16
  27      0.63947042272696
  28       1.0880125737299
  29    -1.9058067001184e-15
  30     -0.28888231727847
  31      0.75035297014743
  32     8.72417423303e-05
  33      0.34903761934484
  34      -1.9669513619539
  35     -0.20852242832611
  36     -0.30302689355684
  37    -4.8041674867367e-16
  38      0.63947042259713
  39       1.0880125739049
  40    6.5413695187385e-16
  41      0.28888231727207
  42     -0.75035297024596
  43    -0.025658341277972
  44      0.33586740489088
  45     -0.67593845707023
  46      0.31154478787368
  47    -0.036863705401668
  48    -1.213822349221e-15
  49      -1.2050223399664
  50     0.073100222174089
  51    1.4010741336916e-15
  52    -0.00062641800633407
  53      0.15948410821829
  54       0.3050974977982
  55      0.25717399124223
  56      0.53357463515843
  57    -4.5039527577643e-16
  58     -0.56782950990965
  59      -1.1990847440405
  60    1.6746704964782e-17
  61     -0.23896739996311
  62       0.9174210085813
 Sym= A
 Ene=     1.254210903
 Spin= Alpha
 Occup=    0.00000
   1      0.23709176039695
   2     -0.41423132993415
   3     0.013588513470156
   4     0.082167714435825
   5       0.8086176681972
   6      0.17616321805367
   7     0.020608574299438
   8    -2.2138213433005e-15
   9     -0.10937381427847
  10      0.25876142092881
  11    2.553205352898e-15
  12    0.0027493325385802
  13      0.28916212719156
  14     -0.20232529735064
  15      -0.2177779899092
  16     -0.17846294494937
  17    -9.3079522428065e-16
  18       1.2885533563187
  19      0.56563076934216
  20    -3.9308372408743e-16
  21    -0.0039543388546607
  22       0.9728074000714
  23      -5.2060641263649
  24      0.16070367676289
  25     0.038595887904841
  26    5.6368272731911e-16
  27      -2.2958244238072
  28      -1.8232598809325
  29    9.1586307821679e-17
  30      -0.6061285593201
  31      0.32151490523685
  32    0.0039543388545525
  33     -0.97280740006553
  34       5.2060641263498
  35      0.16070367676062
  36     0.038595887907245
  37    1.7566017529957e-15
  38      -2.2958244238111
  39      -1.8232598809127
  40    -2.0592832005688e-15
  41      0.60612855931075
  42     -0.32151490523806
  43    -0.0027493325387851
  44     -0.28916212719058
  45      0.20232529734678
  46     -0.21777798990263
  47     -0.17846294495033
  48    5.0387472023205e-16
  49       1.2885533562886
  50      0.56563076934407
  51    -1.9258377092265e-16
  52    -0.013588513469909
  53    -0.082167714440562
  54     -0.80861766817447
  55      0.17616321805429
  56     0.020608574303545
  57    -4.1338184187864e-16
  58     -0.10937381428554
  59      0.25876142091279
  60    5.5572347349937e-16
  61     -0.23709176039504
  62      0.41423132993662
 Sym= A
 Ene=      1.27049106
 Spin= Alpha
 Occup=    0.00000
   1      0.20097330429557
   2     -0.27008330378611
   3     0.026472123578852
   4     -0.69641854678973
   5       1.9104485367268
   6    0.00062387819923656
   7    -0.061316142605604
   8    1.8892142875356e-15
   9      0.40378836352772
  10       0.6220712767252
  11    -2.020429843004e-15
  12    -0.0063074971355391
  13     -0.20349209552021
  14      0.35754769424011
  15     -0.39737263368459
  16     0.092586964046075
  17    3.2652764448329e-15
  18       1.8861308315988
  19      -0.2219512725969
  20    -3.9744648550588e-15
  21    -0.0040273673581443
  22      0.49245173611239
  23      -1.3188791635532
  24      0.09870312802212
  25    -0.079421574726591
  26    -2.071615115273e-15
  27      0.52012379745959
  28      -1.4471643864785
  29    3.7357101320599e-15
  30     -0.52481827669655
  31    -0.069185817670624
  32    -0.0040273673581904
  33      0.49245173612431
  34      -1.3188791636226
  35    -0.098703128026536
  36     0.079421574725921
  37    -7.5665505597821e-16
  38     -0.52012379741886
  39        1.447164386502
  40    1.2462376202733e-15
  41     -0.52481827670327
  42    -0.069185817667794
  43    -0.0063074971355353
  44     -0.20349209551386
  45      0.35754769423462
  46      0.39737263368634
  47     -0.09258696404461
  48    2.6317676917029e-15
  49      -1.8861308316086
  50      0.22195127259158
  51    -4.3623748286289e-15
  52     0.026472123579248
  53     -0.69641854678719
  54       1.9104485367294
  55    -0.00062387820315762
  56     0.061316142605166
  57    -7.5445400814007e-17
  58     -0.40378836352028
  59     -0.62207127672918
  60    1.5098283421264e-15
  61      0.20097330430263
  62     -0.27008330379411
 Sym= A
 Ene=     1.395380017
 Spin= Alpha
 Occup=    0.00000
   1      0.26815393941963
   2       0.4729700567683
   3    -0.0013075611695887
   4      0.73239175552398
   5     -0.96836491931307
   6       0.1398018744156
   7     -0.17490191667022
   8    2.9611118119338e-16
   9     -0.30208336095557
  10      0.61284349951445
  11    -8.0448029463508e-16
  12    0.0032818793165583
  13       0.2910907726041
  14     -0.68845254044158
  15     -0.13371675159272
  16    -0.081592562572269
  17    -5.6647447411052e-16
  18      0.11284658867387
  19      0.14706971093564
  20    1.4383125245939e-15
  21    -0.024545033835656
  22      -1.1958718897508
  23       3.5023833462729
  24     -0.18513433378779
  25     -0.11465937600371
  26    -2.9692775672358e-16
  27      0.59119020586918
  28      0.25699692062647
  29    -9.9399222697707e-16
  30     -0.25368326558168
  31     -0.39338475418693
  32      0.02454503383472
  33       1.1958718897389
  34      -3.5023833461717
  35     -0.18513433381195
  36     -0.11465937600109
  37    -9.594207722745e-16
  38      0.59119020598382
  39      0.25699692063926
  40    1.7194486607722e-15
  41      0.25368326556194
  42      0.39338475416585
  43    -0.003281879315956
  44     -0.29109077255816
  45      0.68845254031805
  46     -0.13371675157547
  47    -0.081592562556618
  48    -4.0533843569937e-17
  49      0.11284658862104
  50      0.14706971087741
  51    -5.8867689005234e-16
  52    0.0013075611700208
  53     -0.73239175546365
  54      0.96836491928498
  55      0.13980187439639
  56     -0.17490191666036
  57    -1.0569339745128e-16
  58     -0.30208336093081
  59      0.61284349946343
  60    3.5524918417112e-16
  61     -0.26815393939406
  62     -0.47297005675488
 Sym= A
 Ene=     1.407257345
 Spin= Alpha
 Occup=    0.00000
   1     -0.31040665986042
   2     -0.18606187507273
   3    -0.0038764125431919
   4     -0.77554288079494
   5       0.4000423812937
   6      -0.2399063364743
   7       0.1316905396998
   8     1.40200932326e-15
   9       0.3090932969765
  10     -0.63499318632505
  11    -3.506168064947e-15
  12    -0.0069359815563174
  13     -0.60839473096942
  14       1.5429459752596
  15      0.18592632668396
  16       0.1969401464053
  17    -2.4002615184561e-15
  18      -0.6074276025695
  19     -0.73160960137201
  20    5.114434554736e-15
  21     0.012513782197357
  22      0.15591497925602
  23      -1.3083005844657
  24     -0.28600984185712
  25      0.03081004178107
  26    -7.3639368312646e-16
  27       1.3819745265194
  28      0.23735031277494
  29    -7.8567638826776e-16
  30      0.28627406616942
  31      0.28287696654633
  32     0.012513782199312
  33      0.15591497934683
  34      -1.3083005847182
  35      0.28600984184243
  36    -0.030810041789832
  37    7.4676010599729e-16
  38      -1.3819745264787
  39     -0.23735031276547
  40    -1.1726574221739e-15
  41      0.28627406619181
  42      0.28287696657744
  43    -0.0069359815565824
  44     -0.60839473099397
  45       1.5429459753187
  46     -0.18592632669696
  47     -0.19694014641275
  48    -2.9615862226956e-16
  49       0.6074276025935
  50      0.73160960138735
  51    8.8490355897457e-16
  52    -0.0038764125431412
  53     -0.77554288085098
  54      0.40004238135659
  55      0.23990633648574
  56     -0.13169053971431
  57    2.771976508822e-16
  58     -0.30909329699627
  59      0.63499318637842
  60    -5.9357844698562e-16
  61     -0.31040665988229
  62     -0.18606187510955
 Sym= A
 Ene=     1.454670093
 Spin= Alpha
 Occup=    0.00000
   1      0.14143945869596
   2      0.12280045231655
   3     0.010178458835891
   4     0.037548704385971
   5      0.26114743986789
   6    -0.036025007243246
   7     -0.06328664028853
   8    -1.5044436914049e-17
   9      0.09821449483827
  10      0.43232047899175
  11    7.1975044985848e-16
  12     0.013015445240697
  13     -0.25032232847309
  14      -1.0439690866078
  15     -0.43139914877798
  16     0.021699809626743
  17    1.1380652727509e-15
  18      0.55667178567651
  19    -0.0013004988313832
  20    -2.1906931485907e-15
  21    0.0092774278232336
  22    -0.087190433471176
  23     -0.36505730891794
  24      0.17437333002056
  25     -0.20639455772238
  26    -8.030632173997e-17
  27      -1.1048708189475
  28       2.3363425251374
  29    1.5134970298398e-16
  30      0.78697689716836
  31       0.6428274588334
  32    0.0092774278231193
  33    -0.087190433474183
  34     -0.36505730889689
  35     -0.17437333002334
  36      0.20639455772249
  37    -9.5863656853861e-16
  38       1.1048708189602
  39      -2.3363425251461
  40    8.8905440814972e-16
  41      0.78697689716874
  42      0.64282745883297
  43     0.013015445240771
  44     -0.25032232846656
  45      -1.0439690866181
  46      0.43139914877424
  47    -0.021699809626442
  48    9.3681765720988e-17
  49     -0.55667178565415
  50    0.0013004988301168
  51    7.5334071491022e-17
  52     0.010178458835854
  53     0.037548704394516
  54      0.26114743984407
  55     0.036025007241831
  56     0.063286640288784
  57    1.5882398296788e-15
  58    -0.098214494829179
  59     -0.43232047898841
  60    -1.7775335542237e-15
  61      0.14143945869786
  62      0.12280045231683
 Sym= A
 Ene=     1.550535557
 Spin= Alpha
 Occup=    0.00000
   1     -0.13506131400075
   2      0.16214767076652
   3    -0.00060882439054629
   4     -0.79295583056861
   5        2.887211025405
   6     -0.10627414550794
   7    -0.055084989376026
   8    2.0732070600289e-16
   9       1.1965667049163
  10      0.70282657664526
  11    -6.4145457589834e-16
  12    0.0023349508661551
  13     -0.37448227275007
  14     -0.16520485156399
  15     -0.50128956673621
  16    -0.030598995882053
  17    3.695414410138e-16
  18       2.6081767368804
  19      0.15836291544152
  20    1.0379342903081e-15
  21    -0.012003774629626
  22     -0.43990975082498
  23      0.73513250137912
  24     -0.39390649831906
  25    -0.085922468574086
  26    -4.1134081365365e-16
  27       2.1069862267765
  28     -0.38478710537463
  29    -8.2077482984791e-19
  30     -0.17151200920807
  31    -0.073543007264135
  32     0.012003774629504
  33      0.43990975082349
  34     -0.73513250136727
  35     -0.39390649831793
  36    -0.085922468575935
  37    1.5861486822634e-16
  38       2.1069862267739
  39     -0.38478710536204
  40    -4.6817567172775e-16
  41      0.17151200920297
  42     0.073543007259232
  43    -0.0023349508662819
  44      0.37448227275633
  45      0.16520485156217
  46     -0.50128956674055
  47    -0.030598995881302
  48    -2.75259732125e-16
  49       2.6081767368898
  50      0.15836291543828
  51    4.9441410093397e-16
  52    0.0006088243903973
  53      0.79295583057167
  54      -2.8872110254117
  55     -0.10627414550868
  56    -0.055084989376101
  57    -4.0924657312161e-17
  58       1.1965667049183
  59      0.70282657664889
  60     1.83188009157e-16
  61      0.13506131399968
  62     -0.16214767076677
 Sym= A
 Ene=     1.812986485
 Spin= Alpha
 Occup=    0.00000
   1      0.37229917984472
   2      0.37136538888174
   3     0.014719378088824
   4      0.72958245526515
   5      -3.3633958775736
   6    -0.046892274956103
   7    -0.035923816915933
   8    1.0326756726023e-15
   9      -1.3856019605961
  10     0.023246314852128
  11    -1.8474515134368e-15
  12     -0.03559190547555
  13      -1.3457705698041
  14       5.5206609058049
  15     0.063680559509036
  16      0.15721098571497
  17    -1.5001955044613e-15
  18     -0.34432627860091
  19      -1.7987841078628
  20    2.925723487999e-15
  21    0.0070656722089009
  22    -0.033320486412451
  23      -1.3972618454313
  24      0.17823157397517
  25      0.10388702706286
  26    1.0797492997208e-17
  27       1.6431012402662
  28      -2.1670238900605
  29    -1.0870260393516e-15
  30     -0.24232347806029
  31     -0.60816035161655
  32    0.0070656722075528
  33    -0.033320486425972
  34      -1.3972618452633
  35     -0.17823157396833
  36     -0.10388702705881
  37    1.0605977668944e-15
  38      -1.6431012402833
  39       2.1670238900028
  40    -1.1147401127576e-15
  41     -0.24232347806555
  42     -0.60816035160601
  43    -0.035591905474609
  44      -1.3457705697559
  45       5.5206609056448
  46    -0.063680559515908
  47     -0.15721098571047
  48    -4.203276668279e-16
  49      0.34432627862837
  50       1.7987841078151
  51    9.7687962986506e-16
  52     0.014719378088204
  53      0.72958245524257
  54      -3.3633958774917
  55     0.046892274955734
  56     0.035923816914787
  57    -2.2398785396628e-16
  58       1.3856019605581
  59    -0.023246314839742
  60    -2.2309820997043e-16
  61      0.37229917983185
  62      0.37136538887059
 Sym= A
 Ene=     1.844748988
 Spin= Alpha
 Occup=    0.00000
   1     -0.36464215954612
   2     -0.30722269429489
   3    -0.016856902132346
   4     -0.66184322592148
   5       2.3992111121508
   6     0.010722129348459
   7     0.033012234727032
   8    -3.0817949112738e-16
   9       1.1049468197424
  10     -0.31931623423562
  11    2.2262543575215e-16
  12     0.025780452610287
  13       1.3303600897916
  14      -4.4571802980584
  15      0.18030853430074
  16     -0.12650703089546
  17    1.2741185285392e-16
  18     -0.65526583359199
  19       1.3370516752877
  20    1.2688375861295e-16
  21    -0.038015582724872
  22     -0.36893641450417
  23       4.6152006910668
  24     -0.19723760084586
  25     -0.10917829666545
  26    -6.8124553798898e-17
  27       0.5220939887454
  28       1.5601179351016
  29    -3.1149622613449e-16
  30     -0.15126385079974
  31      0.28886109060539
  32      0.03801558272514
  33        0.368936414503
  34      -4.6152006911168
  35     -0.19723760085266
  36     -0.10917829666898
  37    1.0774367550389e-15
  38      0.52209398868937
  39       1.5601179351757
  40    -7.4753495072634e-16
  41      0.15126385079216
  42     -0.28886109062622
  43    -0.025780452611491
  44      -1.3303600898403
  45       4.4571802982541
  46      0.18030853429948
  47     -0.12650703090099
  48    -4.0889794230551e-16
  49      -0.6552658335807
  50       1.3370516753515
  51    4.6332178047163e-16
  52     0.016856902132883
  53      0.66184322594805
  54      -2.3992111122711
  55     0.010722129350059
  56     0.033012234728271
  57    1.3440725475206e-16
  58       1.1049468197923
  59     -0.31931623423697
  60    -1.7476500306069e-16
  61      0.36464215955992
  62      0.30722269430811
