[Molden Format]
made by pyscf v[2.9.0]
[Atoms] (AU)
H   1   1    -5.23879324882549    -2.08616882439197     0.00000000000000
N   2   7    -5.43454052943856    -0.10999528853256     0.00000000000000
N   3   7    -3.32931381708035     0.96100699256469     0.00000000000000
C   4   6    -1.14187645939906    -0.55479146482818     0.00000000000000
H   5   1    -1.33192432602045    -2.61430003305479     0.00000000000000
C   6   6     1.14187645939906     0.55479146482818     0.00000000000000
H   7   1     1.33192432602045     2.61430003305479     0.00000000000000
N   8   7     3.32931381708035    -0.96100699256469     0.00000000000000
N   9   7     5.43454052943856     0.10999528853256     0.00000000000000
H   10   1     5.23879324882549     2.08616882439197     0.00000000000000
[GTO]
1 0
 s    3 1.00
             18.731137    0.03349459952309
             2.8253937    0.23472694665786
             0.6401217    0.81375731841339
 s    1 1.00
             0.1612778                   1

2 0
 s    6 1.00
              4173.511  0.0018347994430301
              627.4579   0.013994995751693
              142.9021   0.068586979179805
              40.23433    0.23224092950117
              12.82021    0.46906985760962
              4.390437    0.36045489058067
 s    3 1.00
             11.626358   -0.11496102288211
               2.71628   -0.16911803366165
              0.772218     1.1458522280731
 s    1 1.00
             0.2120313                   1
 p    3 1.00
             11.626358   0.067580023248036
               2.71628    0.32390711142648
              0.772218    0.74089525487354
 p    1 1.00
             0.2120313                   1

3 0
 s    6 1.00
              4173.511  0.0018347994430301
              627.4579   0.013994995751693
              142.9021   0.068586979179805
              40.23433    0.23224092950117
              12.82021    0.46906985760962
              4.390437    0.36045489058067
 s    3 1.00
             11.626358   -0.11496102288211
               2.71628   -0.16911803366165
              0.772218     1.1458522280731
 s    1 1.00
             0.2120313                   1
 p    3 1.00
             11.626358   0.067580023248036
               2.71628    0.32390711142648
              0.772218    0.74089525487354
 p    1 1.00
             0.2120313                   1

4 0
 s    6 1.00
             3047.5249  0.0018347001629433
             457.36951    0.01403730124668
             103.94869   0.068842606114048
             29.210155    0.23218442062076
              9.286663    0.46794134155879
              3.163927    0.36231203217765
 s    3 1.00
             7.8682724   -0.11933240861517
             1.8812885   -0.16085421161283
             0.5442493     1.1434564825515
 s    1 1.00
             0.1687144                   1
 p    3 1.00
             7.8682724   0.068999095584993
             1.8812885    0.31642397975315
             0.5442493    0.74430825237435
 p    1 1.00
             0.1687144                   1

5 0
 s    3 1.00
             18.731137    0.03349459952309
             2.8253937    0.23472694665786
             0.6401217    0.81375731841339
 s    1 1.00
             0.1612778                   1

6 0
 s    6 1.00
             3047.5249  0.0018347001629433
             457.36951    0.01403730124668
             103.94869   0.068842606114048
             29.210155    0.23218442062076
              9.286663    0.46794134155879
              3.163927    0.36231203217765
 s    3 1.00
             7.8682724   -0.11933240861517
             1.8812885   -0.16085421161283
             0.5442493     1.1434564825515
 s    1 1.00
             0.1687144                   1
 p    3 1.00
             7.8682724   0.068999095584993
             1.8812885    0.31642397975315
             0.5442493    0.74430825237435
 p    1 1.00
             0.1687144                   1

7 0
 s    3 1.00
             18.731137    0.03349459952309
             2.8253937    0.23472694665786
             0.6401217    0.81375731841339
 s    1 1.00
             0.1612778                   1

8 0
 s    6 1.00
              4173.511  0.0018347994430301
              627.4579   0.013994995751693
              142.9021   0.068586979179805
              40.23433    0.23224092950117
              12.82021    0.46906985760962
              4.390437    0.36045489058067
 s    3 1.00
             11.626358   -0.11496102288211
               2.71628   -0.16911803366165
              0.772218     1.1458522280731
 s    1 1.00
             0.2120313                   1
 p    3 1.00
             11.626358   0.067580023248036
               2.71628    0.32390711142648
              0.772218    0.74089525487354
 p    1 1.00
             0.2120313                   1

9 0
 s    6 1.00
              4173.511  0.0018347994430301
              627.4579   0.013994995751693
              142.9021   0.068586979179805
              40.23433    0.23224092950117
              12.82021    0.46906985760962
              4.390437    0.36045489058067
 s    3 1.00
             11.626358   -0.11496102288211
               2.71628   -0.16911803366165
              0.772218     1.1458522280731
 s    1 1.00
             0.2120313                   1
 p    3 1.00
             11.626358   0.067580023248036
               2.71628    0.32390711142648
              0.772218    0.74089525487354
 p    1 1.00
             0.2120313                   1

10 0
 s    3 1.00
             18.731137    0.03349459952309
             2.8253937    0.23472694665786
             0.6401217    0.81375731841339
 s    1 1.00
             0.1612778                   1

[5d]
[7f]
[9g]

[MO]
 Sym= A
 Ene=    -15.65273048
 Spin= Alpha
 Occup=    2.00000
   1    0.00028222644106094
   2    0.00051751805009064
   3    -0.023949185266714
   4    4.4149562074222e-05
   5    -0.0054736504175969
   6    9.5673240152274e-07
   7    0.00010190141945643
   8    4.6216561558167e-17
   9    -0.002375799257743
  10    -0.0003070308070219
  11    -6.9316518114316e-17
  12     -0.70399391436638
  13     -0.01708440185908
  14     0.014315613997192
  15    0.00042636181216361
  16    0.0021255598011008
  17    -5.7655205457067e-17
  18    -0.00046212769798457
  19    -0.0048579814545835
  20    1.1889236611402e-16
  21    -3.729582591229e-05
  22    0.00026973620848595
  23    -0.0050811990693849
  24    2.2041214273397e-05
  25    0.00016239177280149
  26    1.1802491263959e-16
  27    0.0044289578935566
  28    -0.0033020150210658
  29    -1.6786922807463e-16
  30    9.8241956434441e-06
  31    -0.00058851873834453
  32    -3.7295830377506e-05
  33    0.0002697363016245
  34    -0.0050812004448932
  35    -2.2041215664729e-05
  36    -0.00016239178028364
  37    3.3031132803238e-17
  38    -0.0044289584346499
  39    0.0033020153130812
  40     2.55177150616e-17
  41    9.8242596942361e-06
  42    -0.00058851868550664
  43     -0.70399408188155
  44    -0.017084405893342
  45     0.014315616825952
  46    -0.00042636186431272
  47    -0.0021255602875239
  48    2.1303736277783e-17
  49    0.00046212750043411
  50    0.0048579823544434
  51    -3.4085035327458e-17
  52    -0.023949190967391
  53    4.4149553935933e-05
  54    -0.0054736513040295
  55    -9.5675051281804e-07
  56    -0.00010190144938389
  57    -1.9015054330787e-17
  58    0.0023757996623179
  59    0.00030703078766027
  60    2.4724000253294e-17
  61    0.00028222650000672
  62    0.00051751814428416
 Sym= A
 Ene=    -15.65272615
 Spin= Alpha
 Occup=    2.00000
   1    0.00024771608475531
   2    0.00039585814127198
   3    -0.023948568150911
   4    -3.4016644911083e-05
   5    -0.0037252385648467
   6    7.6138660289338e-05
   7     0.000125763943235
   8    -8.751763250765e-17
   9    -0.0017002253965752
  10    8.139517760036e-05
  11    2.734623471081e-16
  12     -0.70397654254117
  13    -0.016953832358008
  14       0.0118878350631
  15    0.00021917094108466
  16    0.0020441841209948
  17    4.8077340047395e-16
  18    0.00083025614909211
  19    -0.0037816431701849
  20    -6.5813856444914e-16
  21    -1.8799749075613e-05
  22    0.0003914626328371
  23    -0.0057809450560399
  24    5.8484158936182e-06
  25    3.1451136098941e-05
  26    1.3096150790853e-16
  27    0.0022737798211949
  28    -0.0012273204248611
  29    3.5124694783209e-17
  30    0.00026917886111993
  31    0.00022203008409666
  32    1.8799740207363e-05
  33    -0.00039146256865001
  34    0.0057809438469369
  35    5.8484106495522e-06
  36    3.1451097454183e-05
  37    1.3736958426508e-17
  38     0.002273778767296
  39    -0.0012273196391205
  40    8.0939614528445e-18
  41    -0.00026917885878259
  42    -0.00022203022414283
  43      0.70397637502166
  44     0.016953828292679
  45    -0.011887831656617
  46    0.00021917083962468
  47    0.0020441836152038
  48    3.1362227999424e-17
  49    0.00083025625905757
  50    -0.0037816420141989
  51    -5.0029527251202e-17
  52      0.02394856245481
  53    3.4016655475106e-05
  54    0.0037252372623477
  55    7.6138660053583e-05
  56    0.00012576391898956
  57    -6.8110309262845e-18
  58    -0.0017002248312397
  59    8.1395250656464e-05
  60    2.4317453932783e-17
  61    -0.00024771601760012
  62    -0.00039585801811943
 Sym= A
 Ene=    -15.63601434
 Spin= Alpha
 Occup=    2.00000
   1    0.00022658177121316
   2    0.0017666677224414
   3      0.70394677318952
   4     0.016293923748401
   5    -0.0090494331932914
   6    0.0020589745281638
   7    -0.00068512368064683
   8    2.6392740208125e-16
   9    -0.0032246926561535
  10    0.00064254478669957
  11    -3.417409753711e-16
  12    -0.024052848406304
  13    -0.0010171221688221
  14    0.0041128906454356
  15    0.00028808134389573
  16    0.00019514775264836
  17    9.4506021133185e-17
  18    -0.0013624699187023
  19    -0.0010277061661192
  20    1.0582118392323e-16
  21    6.9634683819864e-06
  22    -4.5559492475798e-05
  23    -0.0032296831686632
  24    0.00019250963649389
  25    7.5429950648616e-05
  26    -1.6965194865812e-17
  27    -0.002639240558454
  28    -0.0016095605237019
  29    -3.4976417456517e-18
  30    -5.0664326505181e-05
  31    -0.00081138000399313
  32    -6.9634412755564e-06
  33    4.555973509039e-05
  34     0.003229682509751
  35    0.00019250982886562
  36    7.542997661867e-05
  37    -2.0536248281849e-17
  38    -0.0026392410052101
  39    -0.0016095610010307
  40    1.3075005889091e-17
  41    5.0664435655653e-05
  42    0.00081138041421485
  43     0.024052866463849
  44    0.0010171229177146
  45    -0.004112893314952
  46    0.00028808152362973
  47    0.0001951478726489
  48    -8.3570765759302e-18
  49    -0.0013624707470052
  50    -0.0010277068040177
  51    1.3624743341452e-17
  52     -0.70394730149238
  53    -0.016293935873101
  54    0.0090494394603878
  55    0.0020589760621139
  56    -0.00068512419030677
  57    1.8852196977815e-17
  58    -0.0032246947557923
  59    0.00064254530794294
  60    -2.452338234403e-17
  61    -0.00022658189457777
  62    -0.0017666691230508
 Sym= A
 Ene=    -15.63601052
 Spin= Alpha
 Occup=    2.00000
   1    -0.00016437285819223
   2    -0.0018662390518418
   3     -0.70393551704864
   4    -0.016155546774426
   5    0.0083505714791672
   6    -0.0020439228250528
   7    0.00067909062457574
   8    3.4358430450186e-17
   9    0.0027976578841967
  10    -0.00069452797759705
  11    1.5004598131091e-17
  12     0.024058077614249
  13    0.00099779538453836
  14    -0.0035569297138488
  15    -0.00023949189238999
  16    -0.00015989077034049
  17    -2.7192563193427e-17
  18    0.0011036705628273
  19    0.00084994063159516
  20    -1.3416472665035e-16
  21    3.6115612625947e-05
  22    0.00032327133045435
  23    -0.00087799425877372
  24    -0.00025632314639403
  25    -3.4603249234846e-05
  26    -5.2830819684375e-17
  27    0.00059530356939984
  28     0.000636004190387
  29    1.2701935442546e-16
  30    0.0001454378662835
  31    0.00054659846850258
  32    3.6115617843286e-05
  33    0.00032327129626878
  34    -0.00087799668270433
  35    0.00025632300191563
  36    3.4603192622666e-05
  37    9.5994551791772e-18
  38    -0.00059530158860677
  39    -0.00063600298238745
  40    -5.3141745404613e-17
  41    0.00014543782825805
  42    0.00054659785955667
  43     0.024058059565344
  44    0.00099779462125075
  45    -0.0035569266271575
  46    0.00023949167618192
  47    0.00015989062388755
  48    4.8421509982174e-19
  49    -0.0011036695403028
  50    -0.00084993986031734
  51    -1.2362506033332e-18
  52     -0.70393498873678
  53    -0.016155534545819
  54    0.0083505646875688
  55    0.0020439212797813
  56    -0.00067909011039261
  57    -1.8581278107811e-17
  58    -0.0027976554640606
  59    0.00069452749536609
  60    2.4794297597505e-17
  61    -0.00016437268814421
  62    -0.0018662377259586
 Sym= A
 Ene=     -11.3127465
 Spin= Alpha
 Occup=    2.00000
   1    -9.5856214889385e-05
   2    -0.00020846136816351
   3    -1.7291578564778e-05
   4    -0.00021522764876194
   5    0.0012049536353496
   6    1.4546925854558e-05
   7    2.5720497926168e-05
   8    1.6943249245242e-16
   9    0.00054332381215781
  10    -0.00013924223404506
  11    -1.9526032131316e-16
  12    -0.00011625056023565
  13    -8.0489481388307e-05
  14    0.0003203476598579
  15    -9.1216889923637e-05
  16    -2.2200130376883e-05
  17    1.5975266101902e-18
  18    0.00075014334448943
  19    0.00045867799038271
  20    5.9171198008999e-17
  21      0.70416200836667
  22     0.016900559253998
  23    -0.0060270826973195
  24    -7.6964496067962e-05
  25    0.00027734144583075
  26    4.0999876494626e-17
  27    0.00013707689047763
  28    6.8527833759545e-05
  29    -8.7400059514342e-17
  30    -0.00025640216705299
  31     0.001716236578823
  32      0.70416200927803
  33      0.01690055927779
  34    -0.0060270827184327
  35    7.6964495521945e-05
  36    -0.00027734144656444
  37    -7.6823873993658e-17
  38    -0.00013707688523131
  39    -6.8527830950523e-05
  40    1.2094030763052e-16
  41    -0.00025640216712156
  42     0.001716236580783
  43    -0.00011625056040148
  44    -8.0489481529748e-05
  45    0.00032034766205747
  46    9.1216889922922e-05
  47    2.2200130363111e-05
  48    4.6175538810252e-17
  49    -0.00075014334475941
  50    -0.00045867799040543
  51    -7.237657484621e-17
  52    -1.7291578561386e-05
  53    -0.00021522764886234
  54    0.0012049536353121
  55    -1.4546925819536e-05
  56    -2.5720497949996e-05
  57    1.9893772293798e-16
  58    -0.0005433238119691
  59    0.00013924223447686
  60    -1.5704079017122e-16
  61    -9.5856214949316e-05
  62    -0.00020846136870508
 Sym= A
 Ene=     -11.3114024
 Spin= Alpha
 Occup=    2.00000
   1    -4.5082929298631e-05
   2    -0.00041491321845978
   3    1.9056009612932e-06
   4    -7.7265823134379e-05
   5    -4.6890000333344e-05
   6    -3.1350982059749e-05
   7    1.7909260437877e-05
   8    -4.8195644665417e-17
   9    -0.00015626655866938
  10    -0.00032888257051505
  11    6.0492347554514e-17
  12    -0.00012810802864087
  13    -0.00011076847489024
  14    0.0017247065665645
  15    9.811716390378e-06
  16    6.1634251430426e-06
  17    1.474887507225e-17
  18    0.00020881570688151
  19    -2.8065273702853e-06
  20    -4.1914579876749e-17
  21      0.70452460608267
  22     0.018317681293363
  23    -0.016233014711996
  24    0.00041947336648518
  25    0.00054178404449984
  26    -1.3810731572425e-17
  27    -0.0040248878651093
  28    -0.0021465158346345
  29    4.1557180733065e-17
  30    -4.5568431407096e-05
  31    0.0015193486224755
  32     -0.70452460517177
  33    -0.018317681271564
  34     0.016233014704213
  35    0.00041947336655263
  36    0.00054178404415912
  37    2.8307065469654e-17
  38    -0.0040248878653005
  39    -0.0021465158347362
  40    -4.5384680112008e-17
  41    4.5568431083454e-05
  42    -0.0015193486202539
  43    0.00012810802847927
  44    0.00011076847477358
  45    -0.0017247065660792
  46    9.8117165005264e-06
  47    6.1634251784654e-06
  48    -3.275049112185e-17
  49    0.0002088157059147
  50    -2.8065279229265e-06
  51    5.3136990452007e-17
  52    -1.9056009761422e-06
  53    7.7265822862914e-05
  54    4.6890001841207e-05
  55    -3.1350982075407e-05
  56    1.7909260404104e-05
  57    -1.5558343070025e-16
  58    -0.0001562665593456
  59    -0.00032888257033949
  60    1.0995878664205e-16
  61    4.5082929177275e-05
  62    0.00041491321819567
 Sym= A
 Ene=    -1.407659325
 Spin= Alpha
 Occup=    2.00000
   1    -0.045325347721583
   2    0.0070659872027994
   3     0.096373032075078
   4     -0.21357816396261
   5     -0.13796051329467
   6     -0.11749039564504
   7    -0.018351341725474
   8    -2.2711170301747e-16
   9    -0.019157693124613
  10     0.010020355401493
  11    9.3917889033092e-17
  12      0.10980923935454
  13     -0.23513787769821
  14     -0.21897085799535
  15     0.066908798394911
  16     0.091335851597227
  17    -4.033689522339e-17
  18    -0.011270641863683
  19     0.048069856671254
  20    -3.4827502634629e-16
  21     0.046771155168983
  22    -0.097187055262043
  23    -0.00044922563065548
  24      0.02822503500059
  25    -0.028628619372627
  26    -2.4638063976657e-16
  27    -0.030346058395291
  28      0.03499072818837
  29    2.7173751708613e-16
  30    -0.015593206032449
  31    0.0075170995567108
  32     0.046771155179591
  33     -0.09718705528478
  34    -0.00044922561240012
  35    -0.028225035020756
  36     0.028628619380273
  37    6.2666629670974e-17
  38      0.03034605839666
  39    -0.034990728198451
  40    -2.2997979354888e-16
  41    -0.015593206036381
  42    0.0075170995573438
  43      0.10980923939472
  44      -0.2351378777843
  45     -0.21897085807047
  46    -0.066908798421984
  47    -0.091335851631144
  48    7.3165651769001e-17
  49     0.011270641873555
  50    -0.048069856685619
  51    -5.4091328823767e-17
  52     0.096373032111637
  53     -0.21357816404343
  54     -0.13796051335397
  55      0.11749039568944
  56     0.018351341732203
  57    -1.0352584312445e-16
  58     0.019157693134365
  59    -0.010020355403785
  60    2.1067598177904e-16
  61    -0.045325347738786
  62    0.0070659872062064
 Sym= A
 Ene=    -1.401928873
 Spin= Alpha
 Occup=    2.00000
   1      0.04730028128167
   2    -0.008934575470567
   3     -0.10007407534157
   4       0.2214052297196
   5      0.16089746711271
   6      0.12186612045462
   7     0.018973549359765
   8    4.9516722363857e-17
   9     0.025939607985206
  10    -0.0061919237535751
  11    -6.4219082781385e-17
  12     -0.11018468898089
  13      0.23636149029975
  14      0.20607639819222
  15    -0.076298977751041
  16    -0.092874046490498
  17    5.0650639056672e-17
  18     0.026411088465756
  19    -0.039246178544162
  20    2.8387194673151e-16
  21    -0.029299968922683
  22     0.062725010221062
  23     -0.04878683487815
  24    -0.055122259569484
  25     0.020800547666192
  26    3.4325088209808e-16
  27    0.0027944794170345
  28    -0.028152313635769
  29    4.2229309892336e-17
  30       0.0105422501064
  31    -0.0024531162137884
  32      0.02929996890539
  33    -0.062725010185297
  34     0.048786834879408
  35    -0.055122259559231
  36      0.02080054765572
  37    -4.5451956009869e-17
  38    0.0027944794065169
  39    -0.028152313623464
  40    -5.3431694574148e-17
  41    -0.010542250100696
  42    0.0024531162110959
  43      0.11018468894086
  44     -0.23636149021387
  45     -0.20607639811292
  46    -0.076298977726035
  47    -0.092874046457256
  48    -3.4365767681147e-17
  49     0.026411088461975
  50    -0.039246178526868
  51    2.0910025968687e-16
  52      0.10007407530658
  53       -0.221405229642
  54     -0.16089746706307
  55      0.12186612041181
  56     0.018973549352883
  57    4.7565455203358e-17
  58     0.025939607978477
  59    -0.0061919237499372
  60    -1.1873249922627e-16
  61    -0.047300281265151
  62    0.0089345754680944
 Sym= A
 Ene=    -1.139568325
 Spin= Alpha
 Occup=    2.00000
   1     0.043002642113031
   2    -0.0064800791261339
   3    -0.068066073477915
   4      0.15105737677996
   5      0.17154188085157
   6     0.042953310193721
   7    -0.00056566944472417
   8    -2.2943319246993e-16
   9     0.028668799029226
  10    -0.013502847306441
  11    -2.8557633344129e-16
  12      0.01807943704531
  13    -0.031902882534895
  14      -0.0873147337303
  15     -0.14989220731971
  16    0.0031262394648569
  17    1.2871954282166e-16
  18    -0.032338983813751
  19     0.018856679052226
  20    7.0096205863186e-17
  21      0.13687474043664
  22     -0.28539745352528
  23     -0.16833990090662
  24    -0.081850810257868
  25    -0.068562929663109
  26    -1.4223324086852e-16
  27    -0.014762720693565
  28     0.021884269059647
  29    2.419232348797e-16
  30    -0.061668645581239
  31    0.0058476919746781
  32      0.13687474043733
  33     -0.28539745352616
  34     -0.16833990090794
  35     0.081850810255673
  36      0.06856292966416
  37    1.2149317664873e-16
  38     0.014762720692917
  39    -0.021884269059424
  40    -1.8377138360933e-16
  41    -0.061668645581583
  42    0.0058476919744186
  43     0.018079437046135
  44     -0.03190288253713
  45     -0.08731473373117
  46      0.14989220732188
  47    -0.0031262394655387
  48    9.4248730710625e-17
  49     0.032338983814692
  50    -0.018856679052228
  51    1.014474837505e-16
  52     -0.06806607347873
  53      0.15105737678192
  54      0.17154188085318
  55    -0.042953310193672
  56    0.00056566944517092
  57    8.6434359007115e-19
  58    -0.028668799029237
  59     0.013502847306887
  60    1.6283979533073e-16
  61     0.043002642113797
  62    -0.0064800791262319
 Sym= A
 Ene=    -1.004841055
 Spin= Alpha
 Occup=    2.00000
   1     0.087517526286904
   2    0.0051946652265132
   3    -0.094083621028895
   4      0.20842558580878
   5      0.27974562152499
   6    0.0028379928371274
   7     -0.04322270353279
   8    -6.7771715606828e-17
   9      0.03150828518747
  10    -0.026886438011868
  11    -2.294944275386e-16
  12     0.071161564375384
  13     -0.14872890982881
  14     -0.24820081867304
  15      -0.1856468446596
  16     0.030056793070289
  17    -4.084561667875e-17
  18    -0.049668194558915
  19     0.040687708054573
  20    -1.3419146500363e-16
  21     0.074153413173077
  22     -0.15582323417993
  23      -0.0976602263039
  24      0.13182657488321
  25    -0.061930215134929
  26    1.613442253446e-17
  27    0.0096272955945199
  28    0.0052887221434324
  29    2.3101710275872e-16
  30    -0.035329139304804
  31     0.002802822700426
  32    -0.074153413170968
  33      0.15582323417542
  34     0.097660226300146
  35      0.13182657488613
  36    -0.061930215134629
  37    -4.1632902249784e-17
  38    0.0096272955943936
  39    0.0052887221439743
  40    -2.0238542125668e-16
  41     0.035329139303529
  42    -0.0028028227008498
  43    -0.071161564376195
  44      0.14872890983105
  45      0.24820081867501
  46     -0.18564684465936
  47     0.030056793070854
  48    -1.7571323246425e-16
  49    -0.049668194559951
  50     0.040687708054899
  51    -4.3779113697562e-17
  52     0.094083621029013
  53     -0.20842558580933
  54     -0.27974562152488
  55    0.0028379928357711
  56    -0.043222703534346
  57    -1.1971094871012e-16
  58     0.031508285186872
  59    -0.026886438012677
  60    -1.5331335680927e-16
  61    -0.087517526287908
  62    -0.0051946652265519
 Sym= A
 Ene=   -0.8845403473
 Spin= Alpha
 Occup=    2.00000
   1      0.14619082859887
   2     0.043019396735692
   3    -0.075638904183665
   4      0.15936460719038
   5      0.29307498507955
   6    -0.081395621083221
   7     -0.16385464030325
   8    9.5031551116541e-17
   9     0.019215982989402
  10     -0.05745853364333
  11    -2.3714099916238e-16
  12      0.09046878497964
  13     -0.19834150009224
  14      -0.3474209831042
  15    -0.013179766383571
  16    -0.0056083699592016
  17    7.4591748544001e-17
  18    0.0078429071174287
  19     0.041263738156614
  20    1.6741084701044e-17
  21    -0.050259681067862
  22      0.10677327955044
  23      0.13583828582337
  24      0.16309241640402
  25    -0.029593536086837
  26    8.4095627857616e-17
  27    -0.011929892497699
  28    -0.0039941705668356
  29    1.2646179952825e-16
  30      0.05305486610802
  31     0.015056478819575
  32     -0.05025968107036
  33      0.10677327955501
  34      0.13583828582982
  35     -0.16309241640025
  36     0.029593536087776
  37    -1.1140245682831e-16
  38     0.011929892499628
  39    0.0039941705673558
  40    -9.4948716815868e-17
  41     0.053054866110815
  42     0.015056478820557
  43     0.090468784980096
  44     -0.19834150009351
  45     -0.34742098310586
  46     0.013179766378558
  47    0.0056083699612312
  48    -1.1918684043745e-16
  49    -0.0078429071179785
  50    -0.041263738155924
  51    -1.2246547040261e-16
  52    -0.075638904183147
  53      0.15936460718933
  54        0.293074985078
  55     0.081395621085749
  56      0.16385464030848
  57    8.1053516436632e-17
  58    -0.019215982988417
  59     0.057458533645442
  60    2.4818307552818e-17
  61      0.14619082860137
  62     0.043019396736508
 Sym= A
 Ene=   -0.8385354075
 Spin= Alpha
 Occup=    2.00000
   1     -0.11708939379999
   2    -0.047769761883687
   3     0.017193873051509
   4    -0.027246739629704
   5     -0.10087468923655
   6     0.059336506395199
   7      0.18221540567826
   8    -1.900889152933e-16
   9    -0.009098341548769
  10     0.061080419579959
  11    1.1986077331702e-16
  12    -0.051284189922355
  13      0.12137245512338
  14      0.17452382215541
  15     -0.11165005890182
  16     0.088306254839895
  17    -3.050520050377e-16
  18    -0.055910925223792
  19     0.021269085107282
  20    -2.8484437256291e-16
  21     0.077830216428881
  22     -0.16490982224171
  23      -0.1016222433022
  24     0.055376220473618
  25      0.13769790745057
  26    2.698785420439e-16
  27     0.076977033620655
  28      0.09559111551404
  29    2.6310623928266e-16
  30     -0.14067387483318
  31    -0.046293379177088
  32    -0.077830216427538
  33      0.16490982223826
  34       0.1016222433006
  35     0.055376220480658
  36      0.13769790744965
  37    -1.6251317202411e-16
  38     0.076977033622749
  39     0.095591115513238
  40    -3.4308203893337e-16
  41      0.14067387483204
  42     0.046293379177234
  43     0.051284189920267
  44     -0.12137245511855
  45     -0.17452382214842
  46      -0.1116500589042
  47     0.088306254841457
  48    -4.3251266867063e-16
  49    -0.055910925223429
  50     0.021269085108778
  51    -1.4725456833691e-16
  52    -0.017193873049464
  53      0.02724673962542
  54      0.10087468922846
  55     0.059336506393697
  56      0.18221540567723
  57    -2.183361132282e-16
  58    -0.0090983415480474
  59     0.061080419579912
  60    -1.4052328473404e-16
  61      0.11708939379775
  62     0.047769761882833
 Sym= A
 Ene=   -0.7465624049
 Spin= Alpha
 Occup=    2.00000
   1     -0.12723192927469
   2    -0.061169093096763
   3     0.019328432351789
   4    -0.029613502291368
   5     -0.10339706519608
   6      0.10774743482857
   7      0.19891517055261
   8    -1.6983072166164e-16
   9     0.019498115840113
  10     0.078822118414196
  11    -2.5047650154995e-16
  12    -0.0033822220773089
  13     0.014693111919605
  14      0.02533324383268
  15       -0.207289882742
  16    -0.0086483449785048
  17    2.2556765272696e-16
  18    -0.075622538578767
  19    -0.0098930878859935
  20    1.5716023482896e-16
  21    -0.025325331276716
  22     0.049536776979851
  23     0.043228366044934
  24     0.068869368511268
  25     -0.23343640824229
  26    -1.1743352951739e-17
  27    0.0062090130015968
  28    -0.094124115395029
  29    -7.1072419013596e-18
  30      0.13933955181584
  31     0.070144768775437
  32     0.025325331278829
  33    -0.049536776984162
  34    -0.043228366049447
  35     0.068869368534377
  36     -0.23343640823984
  37    -3.6661181070056e-17
  38    0.0062090130070661
  39    -0.094124115393005
  40    -9.2778316720797e-17
  41     -0.13933955181564
  42    -0.070144768775981
  43    0.0033822220760344
  44    -0.014693111917455
  45    -0.025333243826182
  46     -0.20728988275966
  47    -0.0086483449696273
  48    -1.002598440702e-16
  49    -0.075622538586758
  50    -0.0098930878809614
  51    -8.4312053503314e-17
  52    -0.019328432349518
  53      0.02961350228526
  54      0.10339706519077
  55      0.10774743483059
  56      0.19891517056898
  57    -2.9701225176021e-17
  58       0.0194981158395
  59     0.078822118420861
  60    4.5785511249691e-17
  61      0.12723192928202
  62     0.061169093100534
 Sym= A
 Ene=   -0.7367061978
 Spin= Alpha
 Occup=    2.00000
   1    -0.096467170370163
   2    -0.054468916274446
   3    -0.027220209379089
   4     0.075521879335869
   5     0.060493719085385
   6    0.0044662989146132
   7      0.20477119189204
   8    -2.8885107088335e-16
   9    -0.024545541786585
  10     0.083402156718847
  11    -3.6040560725357e-16
  12    0.0038480921136178
  13    -0.00041999259805551
  14    -0.0093591530485473
  15     -0.20557060646722
  16      0.13808968810457
  17    -2.9912058143571e-16
  18    -0.085638647011968
  19     0.066264887732718
  20    1.6388292772084e-16
  21    -0.017076298326593
  22     0.038554169415468
  23    0.0054921682952646
  24       0.3048915882202
  25     0.058471222469602
  26    1.5625114100475e-16
  27     0.099205094336553
  28     0.037731139801246
  29    -2.9929667819724e-16
  30    -0.031920250345888
  31    -0.011876913915234
  32    -0.017076298325873
  33     0.038554169413797
  34    0.0054921682960374
  35     -0.30489158821277
  36    -0.058471222485671
  37    1.3332576050352e-16
  38     -0.09920509433509
  39    -0.037731139808521
  40    2.0147917790203e-16
  41    -0.031920250354368
  42    -0.011876913919288
  43    0.0038480921143391
  44    -0.00041999260042227
  45    -0.0093591530533416
  46      0.20557060645009
  47     -0.13808968810513
  48    5.4448661142971e-16
  49     0.085638647006248
  50    -0.066264887734149
  51    3.8239651051173e-16
  52    -0.027220209380737
  53     0.075521879338407
  54       0.0604937190944
  55    -0.0044662989049643
  56     -0.20477119187615
  57    3.6229997690682e-16
  58     0.024545541788207
  59    -0.083402156712552
  60    2.3973456762858e-16
  61    -0.096467170359614
  62    -0.054468916269036
 Sym= A
 Ene=   -0.6484425103
 Spin= Alpha
 Occup=    2.00000
   1     -0.07932092953126
   2    -0.041833210873967
   3     0.014061702370517
   4    -0.022610139103248
   5    -0.068633954527817
   6      0.12897085295551
   7       0.1158640889335
   8    -4.7300217787674e-17
   9     0.056208391091904
  10     0.049920555516665
  11    -5.7351996855563e-17
  12     0.030849710963259
  13    -0.064690869144173
  14    -0.096415131452809
  15     -0.18730549279977
  16     -0.10285735579023
  17    3.2162868187644e-16
  18    -0.059805103666358
  19    -0.055639296707766
  20    2.9724538725566e-16
  21    -0.019655855543814
  22     0.035947357082236
  23     0.090792831813978
  24    -0.045599374521502
  25     -0.26702045357408
  26    3.3698594682262e-17
  27    -0.0088311280251704
  28     -0.18153058722133
  29    9.6377963761795e-17
  30      0.18349459055865
  31     0.086211457675636
  32    -0.019655855543504
  33     0.035947357081636
  34     0.090792831810523
  35     0.045599374522838
  36      0.26702045356988
  37    -1.9107536100573e-16
  38     0.008831128028311
  39      0.18153058722178
  40    -2.7401273191057e-16
  41      0.18349459055617
  42      0.08621145767383
  43     0.030849710963621
  44    -0.064690869145235
  45    -0.096415131455007
  46      0.18730549279825
  47      0.10285735579305
  48    -4.1246327918435e-16
  49     0.059805103665951
  50     0.055639296709301
  51    -1.7289437902924e-16
  52     0.014061702370687
  53    -0.022610139103723
  54    -0.068633954528679
  55     -0.12897085295743
  56     -0.11586408893077
  57    -2.0949411692174e-16
  58    -0.056208391093183
  59    -0.049920555515536
  60    -1.4009157508595e-16
  61    -0.079320929529592
  62    -0.041833210872809
 Sym= A
 Ene=   -0.5617681895
 Spin= Alpha
 Occup=    2.00000
   1    -0.017410330448212
   2     0.013541147900005
   3    -0.041072312529086
   4     0.084329446332659
   5      0.17228633581572
   6     -0.30220870868079
   7     0.093554601701223
   8    -6.1747615843776e-16
   9     -0.17182171278367
  10     0.064891422789325
  11    -3.3624323942572e-16
  12    -0.018739875399981
  13      0.04133027903652
  14     0.058187151835354
  15     0.095231250892889
  16      0.27020672008749
  17    -9.2739895561778e-16
  18    -0.0060759594918228
  19      0.17747061626673
  20    -3.2790709723417e-16
  21    -0.029075215321796
  22     0.042665660830366
  23      0.31714768843869
  24     0.015820897096112
  25    -0.054612909206643
  26    -4.4502841235323e-16
  27     0.086688299433935
  28     0.071104978165093
  29    -4.796633959812e-16
  30     0.072561960504797
  31     0.067412352262701
  32     0.029075215321245
  33    -0.042665660828004
  34     -0.31714768844109
  35     0.015820897083697
  36    -0.054612909220352
  37    -5.7144026163397e-16
  38     0.086688299429523
  39     0.071104978159065
  40    -9.1704313587427e-17
  41    -0.072561960515165
  42    -0.067412352271711
  43     0.018739875401456
  44    -0.041330279039427
  45    -0.058187151843102
  46     0.095231250899258
  47       0.2702067201026
  48    -1.0838929052743e-15
  49    -0.0060759594892682
  50      0.17747061627735
  51    -7.8702403254914e-16
  52     0.041072312530839
  53    -0.084329446336233
  54       -0.172286335824
  55     -0.30220870870073
  56      0.09355460170756
  57    -1.0145122850614e-15
  58     -0.17182171279505
  59     0.064891422793997
  60    -6.3563364916919e-16
  61     0.017410330449913
  62    -0.013541147900675
 Sym= A
 Ene=   -0.5360244275
 Spin= Alpha
 Occup=    2.00000
   1    0.0081854108083426
   2     -0.01788403578625
   3     0.026434312028794
   4    -0.050250181924346
   5     -0.13295753646845
   6      0.27531428507536
   7    -0.067705342374494
   8    6.8313900751894e-16
   9      0.15784560345839
  10    -0.060384047784835
  11    3.2922336251506e-16
  12      0.02493545740422
  13    -0.049114220387045
  14     -0.11591962419423
  15     -0.10552226085449
  16     -0.24521624437996
  17    7.8835353759549e-16
  18    -0.041943628087605
  19     -0.17067505210205
  20    4.2319077970408e-16
  21    -0.010412898891558
  22     0.037055673917455
  23    -0.015808451398259
  24      0.14811599940923
  25      0.15608932001889
  26    1.1854083284689e-16
  27     0.051736288238619
  28     0.050784129846126
  29    1.4265339006967e-16
  30     -0.12046540654626
  31     -0.11792554657346
  32    -0.010412898893653
  33      0.03705567392007
  34    -0.015808451370383
  35     -0.14811599940972
  36     -0.15608932001531
  37    -2.3523153269089e-16
  38    -0.051736288247146
  39    -0.050784129854007
  40    -2.8473592186629e-16
  41     -0.12046540654099
  42      -0.1179255465678
  43     0.024935457402941
  44    -0.049114220384195
  45     -0.11591962419166
  46      0.10552226084735
  47      0.24521624435977
  48    -9.6854102775193e-16
  49      0.04194362808869
  50      0.17067505208865
  51    -5.9738298707766e-16
  52     0.026434312025764
  53    -0.050250181918339
  54      -0.1329575364552
  55     -0.27531428505428
  56      0.06770534236823
  57    -9.7846913441374e-16
  58     -0.15784560344631
  59     0.060384047780185
  60    -6.9398757140665e-16
  61    0.0081854108074129
  62    -0.017884035785136
 Sym= A
 Ene=   -0.4147287899
 Spin= Alpha
 Occup=    2.00000
   1      0.13673488482431
   2      0.15022230406675
   3     0.048078974512396
   4     -0.11665230060071
   5      -0.1651724262976
   6      0.14981680268984
   7     -0.19923604544457
   8    7.1162141570742e-16
   9      0.16725955648474
  10     -0.11948653137297
  11    5.8826239053665e-16
  12    -0.050021070885074
  13       0.1180674841759
  14      0.16534478520565
  15    -0.041957560722114
  16      0.28236900792993
  17    -2.836452348413e-16
  18     0.014336174692857
  19      0.24431462496514
  20    -1.7916142312426e-16
  21     0.027956164549535
  22    -0.069694781259977
  23    -0.093768401949135
  24      0.11594767841222
  25    -0.098403656884391
  26    -9.0958381864952e-16
  27    0.0090950522677777
  28    -0.046400841850866
  29    -6.8387258820243e-16
  30     0.042454409065771
  31     0.052144500483138
  32    -0.027956164572901
  33     0.069694781322777
  34     0.093768402024908
  35      0.11594767853067
  36    -0.098403656959641
  37    -1.0913870924305e-15
  38    0.0090950523165407
  39    -0.046400841881095
  40    -8.3495612030819e-16
  41    -0.042454409111399
  42    -0.052144500571867
  43      0.05002107091986
  44     -0.11806748425876
  45     -0.16534478531009
  46     -0.04195756079538
  47       0.2823690081647
  48    -9.0931357657315e-16
  49     0.014336174698766
  50      0.24431462517104
  51    -6.8074955808094e-16
  52    -0.048078974554243
  53      0.11665230070206
  54      0.16517242643263
  55      0.14981680285841
  56     -0.19923604561539
  57    4.4803492719778e-16
  58      0.16725955666161
  59       -0.119486531478
  60    5.0311066570496e-16
  61     -0.13673488494252
  62     -0.15022230419186
 Sym= A
 Ene=   -0.4126429446
 Spin= Alpha
 Occup=    2.00000
   1      0.13237032184382
   2      0.14074086444683
   3     0.046878355604906
   4     -0.11318055902917
   5     -0.15323949321433
   6      0.18782226001386
   7     -0.19102003962016
   8    7.3575136267001e-16
   9      0.19717999318767
  10     -0.11797546942053
  11    6.4788611106262e-16
  12    -0.039024358726548
  13     0.092892306862919
  14      0.11858989540208
  15    -0.081807989570731
  16      0.26190014796133
  17    -2.9879831314592e-16
  18    0.0061713228401807
  19      0.22901524478859
  20    -4.2728471935204e-16
  21     0.026322100448059
  22    -0.071013754969692
  23    -0.085887136003023
  24      0.13284753074658
  25    -0.083892280622895
  26    -2.9071474257505e-17
  27     0.054849489063743
  28     -0.03284402947339
  29    -1.0974176498909e-16
  30     0.050657102859984
  31     0.099805159942426
  32     0.026322100422757
  33    -0.071013754906566
  34    -0.085887135917607
  35     -0.13284753064211
  36     0.083892280535142
  37    4.8933323753475e-16
  38    -0.054849489055015
  39     0.032844029432037
  40    3.7037033394995e-16
  41     0.050657102822422
  42     0.099805159895612
  43    -0.039024358681731
  44     0.092892306757138
  45       0.1185898952522
  46     0.081807989532816
  47     -0.26190014771001
  48    7.3997971660287e-16
  49    -0.0061713228277751
  50     -0.22901524457174
  51    7.6885264037205e-16
  52     0.046878355561711
  53     -0.11318055892475
  54     -0.15323949306394
  55     -0.18782225987961
  56      0.19102003944177
  57    -4.5871802073467e-16
  58     -0.19717999303815
  59      0.11797546931293
  60    -5.2260817072345e-16
  61      0.13237032172137
  62      0.14074086431183
 Sym= A
 Ene=               0
 Spin= Alpha
 Occup=    1.88604
   1     1.95533590874e-16
   2    -2.8161644756849e-16
   3    1.2547730473955e-16
   4    -1.8739871587281e-16
   5    -6.5682018285549e-17
   6    1.1506978524876e-15
   7    -3.4871692624091e-16
   8     -0.31878164740925
   9    5.125242401325e-16
  10    4.5317871711043e-16
  11      -0.1938234594692
  12    6.7114934286166e-17
  13    2.4538161436032e-16
  14    -2.2271943486456e-15
  15    -1.6188108533989e-16
  16    -1.3637775796017e-15
  17     -0.42515907140738
  18    2.0784365152151e-16
  19    -3.3765891588704e-17
  20     -0.27617698021895
  21    5.9882433164673e-17
  22    4.5903188909505e-16
  23    -5.2662026408425e-15
  24    -2.5034343289991e-16
  25    1.9162531503721e-16
  26     -0.24089151140292
  27    -4.2581323280253e-15
  28    -3.9081032733236e-16
  29     -0.16879631510122
  30    -1.0308453050868e-16
  31    3.2256179502324e-16
  32    -5.8246533254826e-17
  33    -3.1323819498708e-16
  34    4.4378525245607e-15
  35    -4.2022437633343e-16
  36    2.3144725079721e-16
  37    -0.048363517525731
  38    -3.1997477198077e-15
  39    -3.0228500457973e-15
  40    0.0088555540817553
  41    1.0817293577595e-16
  42    1.3364281544656e-15
  43    -6.6119098934335e-17
  44    -6.8958502089324e-17
  45    7.6715231528596e-17
  46    6.8195690533256e-17
  47    -1.2766066652994e-16
  48     0.022943634975309
  49    2.1755835315967e-17
  50    3.5205010684305e-16
  51     0.020314413222367
  52    3.6991180370043e-17
  53    -2.4754154978342e-16
  54    -6.9162035768666e-17
  55    -8.975777177104e-17
  56    2.0291846436363e-16
  57     0.019335375835021
  58    -3.8865742313974e-16
  59    -2.1765278301351e-16
  60     0.011644962622307
  61    5.4758880340334e-17
  62    6.0016788903612e-16
 Sym= A
 Ene=               0
 Spin= Alpha
 Occup=    1.00036
   1    -3.1416430445962e-16
   2    -7.0685136194468e-16
   3    -1.4933826798223e-16
   4    6.6187611762286e-16
   5    -1.6826418979631e-15
   6    -7.4788581574621e-16
   7    6.2325934593791e-16
   8      0.45317949426154
   9    -1.6504499250461e-15
  10    -5.9552570438703e-16
  11      0.34473274327681
  12    7.9249001433314e-17
  13    -3.3223538983641e-16
  14    4.0822966810845e-16
  15    1.4424261801414e-16
  16    -5.1252756358455e-16
  17    -0.018219555336913
  18    -2.3914621392521e-15
  19    -1.1295913612319e-15
  20    -0.023668199784655
  21    -1.1947310231674e-16
  22    -1.0388463585438e-16
  23    2.5388899032432e-15
  24    -4.1354809211031e-16
  25    1.5945273988651e-16
  26     -0.48125966081901
  27    5.0737669965595e-16
  28    3.3939185002653e-15
  29     -0.42406270431787
  30    4.9314366242996e-17
  31    1.5545417333354e-15
  32    2.1964966725286e-17
  33    1.6517972243245e-16
  34    -2.3173933755057e-15
  35    -3.8153749161586e-17
  36    1.4129454519354e-16
  37     0.012865086793824
  38    2.1132911873596e-15
  39    -1.7692857274469e-15
  40      0.12508350200119
  41    1.1680631506154e-16
  42    1.5155471948013e-15
  43    -4.6326127942521e-17
  44    1.2530173664404e-16
  45    2.0737114315363e-16
  46    1.5799602043278e-16
  47    -3.9502663526386e-16
  48     0.093839160700739
  49    1.607003435013e-15
  50    1.6062439663312e-16
  51     0.075310706636503
  52    6.8103110906115e-17
  53    1.2065116863413e-16
  54    -1.8183044865631e-15
  55    -2.0329307502777e-17
  56    6.5024397685539e-17
  57    -0.013822965029825
  58    7.0819210045741e-16
  59    7.9278831297033e-16
  60    -0.033489329026614
  61    1.6629340480138e-16
  62    -2.1137642320012e-16
 Sym= A
 Ene=               0
 Spin= Alpha
 Occup=    0.11360
   1    -4.2025602681117e-16
   2    3.2696070279495e-17
   3    -1.0295508056904e-16
   4    -6.803623159225e-16
   5    4.6084207792935e-15
   6    1.1776100413332e-15
   7    -4.4684987172665e-16
   8     -0.45802548001885
   9    1.9135189879026e-15
  10    1.082744973158e-15
  11     -0.25203646259255
  12    8.3965303462789e-17
  13    -3.1116075506805e-16
  14    -9.9760595339073e-16
  15    1.6803338604554e-16
  16    1.3715467250226e-15
  17      0.58710321604834
  18    3.6519836310864e-15
  19    -2.2502915464331e-16
  20      0.39556246142439
  21    -9.1578941309783e-17
  22    -1.0549103841428e-16
  23    2.7132743447999e-15
  24    -3.633624309533e-16
  25    5.9252577106373e-16
  26     -0.41152281044666
  27    4.2456407029344e-15
  28    -1.4823873922664e-15
  29     -0.33650447682793
  30    -6.3545250737114e-17
  31    -1.074436732182e-15
  32    1.1436766449469e-16
  33    1.0960436508481e-15
  34    -6.291268472121e-15
  35    -4.5914898438441e-17
  36    6.0301129112444e-16
  37      0.09321296099271
  38    1.6672200303177e-15
  39    1.5864614565066e-15
  40      0.16578735508856
  41    -1.3803429429722e-16
  42     4.76596900469e-16
  43    -3.4704992082233e-17
  44    -2.224754734358e-16
  45    1.6182945776932e-15
  46    6.179621588389e-17
  47    -1.2210767153452e-18
  48      0.02283120707212
  49    -4.1179290050744e-16
  50    5.326263406941e-16
  51    0.0080881645743525
  52    -1.8505464725298e-17
  53    -3.5501188596339e-17
  54    2.1558383912911e-16
  55    3.1444369695761e-16
  56    2.3996054802843e-16
  57    -0.032537647253597
  58    1.5722375314159e-16
  59    3.3369554755666e-16
  60    -0.036246693224294
  61    -1.0161434117717e-16
  62    -1.0074059652104e-15
 Sym= A
 Ene=               0
 Spin= Alpha
 Occup=    1.88604
   1    -3.959345530403e-17
   2    -1.8761355890098e-16
   3    -2.496762443609e-17
   4    1.5453885665325e-16
   5    -7.0952730740874e-16
   6    -1.5115017232414e-16
   7    1.4939198479796e-16
   8     0.019335375840747
   9    -5.5917565112305e-16
  10    -1.2066697020264e-16
  11      0.01164496262422
  12    5.4507301879405e-18
  13    -1.3105071224828e-16
  14    6.2369562694408e-16
  15    5.5172241356505e-17
  16    -2.0083931839576e-16
  17     0.022943634993984
  18    -5.5003797063867e-16
  19    -7.1563507399455e-16
  20     0.020314413235143
  21    4.8706271412521e-17
  22    -8.3557336881723e-18
  23    -1.3770673856188e-15
  24    -2.3007193933126e-16
  25    1.0891308922582e-17
  26    -0.048363517502554
  27    -3.9413516839644e-17
  28    1.0753905871277e-15
  29    0.0088555540973416
  30    4.7999488578765e-17
  31    1.1163022455432e-15
  32    1.8102097057511e-16
  33    -3.2604316705224e-16
  34    -1.1254417414033e-15
  35    -4.2735612961096e-16
  36    6.280180535305e-16
  37     -0.24089151137779
  38    -5.5806587331127e-16
  39    -1.3065288102893e-15
  40     -0.16879631508325
  41    4.2044753627852e-16
  42    1.8226194748566e-15
  43    -2.7758893439607e-16
  44    5.6961189138646e-16
  45    1.1018568004727e-15
  46    -1.5002463845177e-17
  47    -2.5445103219764e-15
  48     -0.42515907141203
  49    5.9623441139361e-17
  50    -1.2739332221408e-15
  51     -0.27617698021923
  52    -9.4951334004009e-17
  53    1.5750943112784e-16
  54    2.2590352860816e-16
  55    1.0842515117176e-15
  56    -2.225621305752e-16
  57     -0.31878164743202
  58    2.9442224115941e-16
  59    -2.4284086366117e-16
  60     -0.19382345948664
  61    1.7537308127583e-16
  62    6.1291876242002e-16
 Sym= A
 Ene=               0
 Spin= Alpha
 Occup=    1.00036
   1    9.0166241026497e-17
   2    -4.6432002100973e-17
   3    5.1636616777964e-17
   4    -4.638787958781e-17
   5    -6.7569311985067e-17
   6    7.6356543265346e-17
   7    -9.1425389622739e-17
   8     0.013822965030412
   9    1.6277843285147e-16
  10    -2.2943562366131e-16
  11     0.033489329036741
  12    -1.4372506122409e-17
  13    2.4736758106856e-16
  14    -4.3234861155876e-16
  15    -1.1023115779775e-16
  16    2.3563359479045e-16
  17    -0.093839160731849
  18    -8.4217718569186e-17
  19    7.6158516765704e-16
  20    -0.075310706669497
  21    1.0337953445107e-17
  22    6.0714199918521e-17
  23    -4.7273687525995e-16
  24    -2.4850806920019e-17
  25    -3.9861515815774e-17
  26    -0.012865086786378
  27    -1.6326353626501e-15
  28    -1.8559891017814e-15
  29     -0.12508350199352
  30    -5.637020289339e-17
  31    -1.4321956251052e-15
  32    -1.814091966849e-16
  33    2.6023131351523e-16
  34    2.9745652235152e-15
  35    5.837329636112e-16
  36    -4.0104398352723e-16
  37      0.48125966084931
  38    -1.3927355993205e-15
  39    8.7028723868933e-16
  40      0.42406270434239
  41    -2.0858650617349e-16
  42    -1.5420754421808e-15
  43    1.3361460191004e-16
  44    -4.5415671731463e-16
  45    7.8669916533691e-19
  46    -2.4475885609304e-16
  47    5.8273183857939e-16
  48     0.018219555332794
  49    -3.0321676593958e-16
  50    5.8428840865845e-16
  51      0.02366819975934
  52    -1.960910105905e-16
  53    4.2270403701281e-16
  54    7.7521301650579e-16
  55    8.3849162540642e-16
  56    -6.7181877568231e-16
  57     -0.45317949421957
  58    4.4349242471505e-16
  59    -7.4202820309841e-16
  60     -0.34473274324358
  61    -3.5911415457428e-16
  62    -7.1012098978652e-17
 Sym= A
 Ene=               0
 Spin= Alpha
 Occup=    0.11360
   1    -3.0563018421821e-17
   2    2.5347452358057e-16
   3    1.0739381327256e-17
   4    1.7939562240625e-17
   5    2.1491167135287e-16
   6    1.9444792875802e-16
   7    9.8120055913483e-17
   8    -0.032537647263546
   9    -3.3298622371095e-16
  10    1.6947527191435e-16
  11    -0.036246693230991
  12    -2.5574054487314e-17
  13    -1.8990843325283e-16
  14    1.8138155703637e-15
  15    -3.600037657915e-17
  16    -2.8623572128031e-16
  17     0.022831207086757
  18    1.4385100315038e-15
  19    -1.5009286456204e-16
  20    0.0080881646056733
  21    4.9340770867374e-17
  22    1.8813907325531e-16
  23    -2.6467658176129e-15
  24    2.6563397076255e-16
  25    4.3833780831697e-16
  26     0.093212960934881
  27    1.9817595838009e-16
  28    -2.3110462466539e-15
  29      0.16578735507509
  30    2.1853215340495e-16
  31    -1.0667102362703e-15
  32    1.2454012414803e-16
  33    -1.7559496390806e-16
  34    3.6695932248651e-16
  35    -2.2489778393876e-16
  36    6.3796354024106e-16
  37     -0.41152281037865
  38    -1.443524756356e-15
  39    -6.9372863107268e-16
  40     -0.33650447684208
  41    -1.1265196931358e-16
  42    1.034312511275e-15
  43    3.3938758589209e-17
  44    -2.1832751564844e-16
  45    -1.3172702019207e-15
  46    -6.6231734679043e-16
  47    2.1246221808185e-15
  48      0.58710321606224
  49    -7.9307965902474e-16
  50    -1.0559816582022e-15
  51      0.39556246143398
  52    -5.0626890610157e-17
  53    -2.9909793010633e-16
  54    1.653801411999e-15
  55    9.2913453307388e-16
  56    -2.8034310880423e-18
  57     -0.45802548004214
  58    -1.5452799282544e-15
  59    -1.4580900669495e-15
  60     -0.25203646262075
  61    5.551559482858e-17
  62    7.5435561221807e-16
 Sym= A
 Ene=    0.1916940525
 Spin= Alpha
 Occup=    0.00000
   1    -0.026245468360945
   2     -0.81737808184884
   3    -0.030608271411494
   4     0.028084046947516
   5      0.54311858284646
   6    -0.0040809827556562
   7     -0.18204942804608
   8    1.0570448260538e-16
   9     0.026626855326175
  10     -0.39707614251091
  11    -7.3317024791126e-17
  12    -0.019422229739296
  13     0.025571708056347
  14      0.27189866856145
  15     0.057944250362615
  16      0.01653797262081
  17    -1.9471169837843e-17
  18      0.13433766034979
  19     0.065786941008838
  20    -1.7220890908733e-17
  21    -0.035518631466568
  22     0.044009684206442
  23      0.53072527499414
  24     0.078018779581609
  25     -0.16782637803397
  26    -5.3917971715477e-18
  27      0.12347547499674
  28     -0.49002135561724
  29    -1.6233316566124e-16
  30     -0.02377143900847
  31     -0.88286759366562
  32     0.035518631466567
  33    -0.044009684206262
  34     -0.53072527499372
  35     0.078018779582232
  36     -0.16782637803744
  37    9.318267476791e-17
  38      0.12347547500516
  39     -0.49002135563467
  40    2.6350680692975e-16
  41     0.023771439006886
  42      0.88286759367517
  43     0.019422229739541
  44    -0.025571708056101
  45      -0.2718986685705
  46     0.057944250364028
  47     0.016537972621849
  48    -1.301579929851e-16
  49      0.13433766035775
  50     0.065786941010981
  51    -2.3285625388657e-16
  52     0.030608271413164
  53    -0.028084046949592
  54       -0.543118582875
  55    -0.0040809827546245
  56     -0.18204942805304
  57    1.0807372048469e-16
  58     0.026626855330337
  59     -0.39707614252694
  60    1.2408686540929e-16
  61      0.02624546836289
  62      0.81737808188771
 Sym= A
 Ene=    0.2261723153
 Spin= Alpha
 Occup=    0.00000
   1    -0.043494669820046
   2      -1.1561052463576
   3     -0.05159173717667
   4     0.058060034526767
   5      0.90681689705874
   6     0.029362329528907
   7     -0.21322773317354
   8    -8.7319435554197e-17
   9      0.15385325805546
  10     -0.47920188864409
  11    1.0744961705716e-16
  12    -0.0073879048695566
  13    -0.0077020993336496
  14       0.2414758710885
  15     0.048618125306835
  16     0.045615867418458
  17    -8.5035966261801e-17
  18      0.27876681333097
  19     0.097099700546241
  20    -1.623016262819e-16
  21    -0.0003941983327371
  22    -0.023631730333628
  23     0.094048976151451
  24    -0.0026294996883593
  25     -0.11512800133919
  26    -2.8283624769469e-16
  27      0.24557294667659
  28     -0.60957332367693
  29    6.6202340583265e-16
  30     0.042464048219954
  31     -0.43703771033516
  32    -0.00039419833088993
  33     -0.02363173033589
  34     0.094048976123343
  35    0.0026294996908011
  36      0.11512800133223
  37    1.0861707823887e-16
  38     -0.24557294667434
  39      0.60957332365329
  40    -5.8145485524174e-16
  41     0.042464048222077
  42     -0.43703771028771
  43    -0.0073879048688859
  44    -0.0077020993343884
  45      0.24147587107787
  46    -0.048618125305709
  47    -0.045615867418269
  48    1.7880595484935e-16
  49     -0.27876681332777
  50    -0.097099700544214
  51    3.5597219318168e-16
  52    -0.051591737176297
  53     0.058060034526987
  54      0.90681689705068
  55    -0.029362329529431
  56      0.21322773316937
  57     1.04026594389e-16
  58     -0.15385325805664
  59      0.47920188863532
  60    -4.0837561480408e-16
  61    -0.043494669820352
  62      -1.1561052463442
 Sym= A
 Ene=    0.2808548867
 Spin= Alpha
 Occup=    0.00000
   1    -0.049409340634636
   2     -0.27969669289114
   3    -0.025948562442654
   4     0.058529856586809
   5      0.30830730104124
   6      0.03221123476526
   7    0.0038329386813274
   8    -1.736203725606e-16
   9     0.078535642037122
  10     -0.03000213636727
  11    -5.8156927802936e-17
  12    -0.0037983260800221
  13     0.010018625580494
  14    -0.0099880895132255
  15      0.10252667913232
  16     -0.12016160253462
  17    1.034809546536e-16
  18      0.19583158004035
  19     -0.18570269950517
  20    5.495881783982e-16
  21      0.06833567869963
  22    -0.063932833432124
  23      -1.3770866443069
  24     0.078820129751059
  25      0.16396603001218
  26    1.0264950582278e-16
  27      0.23965223162859
  28      0.87883840940321
  29    -1.3865327193142e-15
  30     0.034054038050231
  31       1.6029526148599
  32     0.068335678701571
  33    -0.063932833434555
  34      -1.3770866443296
  35    -0.078820129753147
  36     -0.16396603001566
  37    -2.6519092592831e-16
  38     -0.23965223164265
  39     -0.87883840942026
  40    1.6416098371998e-15
  41     0.034054038052938
  42       1.6029526148997
  43    -0.0037983260804506
  44     0.010018625581716
  45    -0.0099880895090388
  46      -0.1025266791353
  47      0.12016160253479
  48    -4.6144208191999e-16
  49     -0.19583158004628
  50      0.18570269950869
  51    -6.7479722540757e-16
  52      -0.0259485624438
  53     0.058529856588876
  54       0.3083073010576
  55    -0.032211234765987
  56    -0.0038329386781347
  57    1.7904125775986e-16
  58    -0.078535642040504
  59     0.030002136374342
  60    3.0372569016286e-16
  61    -0.049409340636056
  62     -0.27969669291197
 Sym= A
 Ene=    0.2901202436
 Spin= Alpha
 Occup=    0.00000
   1     0.045460522423073
   2      0.85078567556408
   3     0.042548020587098
   4    -0.070122902419206
   5     -0.56885797173898
   6    -0.025576718176327
   7      0.13028027835443
   8    -7.3429380613908e-17
   9    -0.086372514641794
  10      0.33604355510804
  11    4.3804072117069e-17
  12     0.014444106027354
  13    -0.034174608131613
  14      -0.1628787140698
  15     -0.09097117247486
  16    -0.014170983813084
  17    8.7190757321182e-18
  18    -0.098388389552733
  19      0.11769402166695
  20    -2.7909106099463e-17
  21    -0.053286716680694
  22     0.069994238693878
  23      0.53699909271613
  24    -0.041928015159998
  25     -0.13349739466839
  26    -1.5034785659052e-16
  27     -0.52945148819618
  28     -0.62900107922861
  29    5.6309768436891e-17
  30      -0.0778430783081
  31      -1.3438256268546
  32     0.053286716678816
  33    -0.069994238692025
  34     -0.53699909267707
  35    -0.041928015158279
  36     -0.13349739466489
  37    -3.3572760799487e-17
  38     -0.52945148818408
  39     -0.62900107921427
  40    2.3310465293825e-16
  41      0.07784307830693
  42       1.3438256268158
  43    -0.014444106027124
  44      0.03417460813175
  45      0.16287871406497
  46    -0.090971172471259
  47    -0.014170983816008
  48    -3.3878841453642e-17
  49    -0.098388389541919
  50      0.11769402166275
  51    -6.6361965501972e-17
  52    -0.042548020585594
  53     0.070122902416906
  54      0.56885797171656
  55    -0.025576718174865
  56      0.13028027835176
  57    -3.3912754349231e-17
  58    -0.086372514637168
  59      0.33604355510028
  60    1.5549719663602e-17
  61    -0.045460522421365
  62     -0.85078567553985
 Sym= A
 Ene=    0.3494057286
 Spin= Alpha
 Occup=    0.00000
   1    0.0081475561427121
   2      -0.5736497741028
   3    -0.042026905193846
   4     0.044147224530074
   5       1.0595046754986
   6       0.1086181829269
   7    -0.0020042712663003
   8     5.92153406871e-16
   9      0.59207030665309
  10     0.007782840395627
  11    -5.4113352193026e-16
  12     0.092705802789596
  13     -0.13921788430286
  14      -1.7741334759685
  15    -0.097566169650721
  16      0.15355084011368
  17    -2.4778910392354e-16
  18     0.037336947106033
  19      0.78875818485185
  20    6.4318476019631e-17
  21    -0.036347307453588
  22     0.062291691335401
  23     -0.29460116346544
  24     -0.10989421089777
  25     0.079547678983697
  26    3.5320300988028e-16
  27      -1.5648517694238
  28     -0.17095889250468
  29    -4.224174062666e-16
  30       0.0602648080876
  31     -0.16990545607789
  32     0.036347307453883
  33    -0.062291691333738
  34      0.29460116345461
  35      -0.1098942109009
  36     0.079547678985802
  37    1.3265836385748e-16
  38      -1.5648517694383
  39     -0.17095889248826
  40    5.0695052973497e-16
  41     -0.06026480808585
  42      0.16990545606873
  43    -0.092705802790533
  44      0.13921788430426
  45       1.7741334759952
  46    -0.097566169650662
  47      0.15355084011499
  48    -1.4784567233843e-16
  49     0.037336947104849
  50      0.78875818486106
  51    -3.9815446810173e-16
  52     0.042026905194223
  53    -0.044147224530098
  54      -1.0595046755095
  55      0.10861818292695
  56    -0.002004271265487
  57    1.6037945295508e-16
  58      0.59207030666076
  59    0.0077828403982268
  60    9.5419165745942e-17
  61    -0.0081475561429045
  62      0.57364977410496
 Sym= A
 Ene=    0.4740283434
 Spin= Alpha
 Occup=    0.00000
   1    -0.026314110414317
   2      0.62224787300467
   3      0.03567401786144
   4     0.019558572501893
   5     -0.98250610013551
   6     -0.01503018088419
   7     0.012108545902039
   8    -3.6533894056551e-16
   9     -0.66247210457692
  10     0.044062720209726
  11    2.8388189151495e-16
  12    -0.086167927436727
  13     0.086741833819957
  14       2.7170211142539
  15    -0.011655839517186
  16     -0.16608285424723
  17    4.1094994721868e-16
  18      0.58618101260935
  19      -0.9785173350551
  20    -3.4996832193386e-16
  21     0.037715409760977
  22       0.1352057687669
  23      -1.4288224791222
  24      0.12153465523021
  25     -0.14080946381733
  26    -1.0537618007856e-15
  27       1.7864457238091
  28      -1.8462881819807
  29    1.2473558982392e-16
  30      0.13016290052435
  31     -0.92199233841915
  32     0.037715409761892
  33      0.13520576876578
  34      -1.4288224791605
  35     -0.12153465522882
  36      0.14080946381941
  37    -1.2265501564505e-15
  38      -1.7864457237731
  39       1.8462881819953
  40    2.5580453533294e-15
  41      0.13016290052621
  42     -0.92199233842384
  43    -0.086167927436063
  44     0.086741833819469
  45       2.7170211142373
  46     0.011655839517431
  47      0.16608285424695
  48    1.1401075980765e-16
  49     -0.58618101261477
  50      0.97851733504558
  51    -1.4848491351866e-15
  52     0.035674017861146
  53     0.019558572501602
  54      -0.9825061001218
  55      0.01503018088362
  56    -0.012108545902073
  57    3.342298081866e-18
  58      0.66247210457157
  59    -0.044062720210342
  60    4.6327999762777e-16
  61    -0.026314110414984
  62      0.62224787299704
 Sym= A
 Ene=    0.5156330831
 Spin= Alpha
 Occup=    0.00000
   1     0.074770276104205
   2      0.35522154278773
   3    -0.020172765866317
   4      0.11029671633886
   5     -0.15747090097029
   6      0.17182434098683
   7     0.044891667776295
   8    -7.8997978807086e-16
   9      0.19064177022608
  10     0.045173093099365
  11    1.3885714005711e-15
  12     0.038977975330134
  13    -0.066761922687549
  14     -0.35851922076675
  15    -0.066128413073239
  16      0.10459113445713
  17    -4.7973801189727e-17
  18      -0.3390911220265
  19     -0.10031840457378
  20    -5.9311226629103e-16
  21     -0.13922091957492
  22      0.15362458651313
  23       4.2542384672831
  24     0.097365657297167
  25      0.21123222334413
  26    -1.0026645437005e-15
  27       2.5582732116165
  28       1.5888122432571
  29    1.3775468607012e-15
  30    -0.013583663806011
  31      0.33836052397564
  32      0.13922091957486
  33     -0.15362458651515
  34       -4.254238467267
  35     0.097365657294587
  36      0.21123222334378
  37    -3.6929640547281e-17
  38       2.5582732116379
  39       1.5888122432402
  40    -1.1940727561709e-16
  41     0.013583663804236
  42     -0.33836052396804
  43    -0.038977975329647
  44     0.066761922687674
  45      0.35851922074092
  46    -0.066128413073467
  47      0.10459113445657
  48    -5.3755970375585e-16
  49     -0.33909112201949
  50     -0.10031840458295
  51    9.2837821316358e-17
  52     0.020172765866242
  53     -0.11029671634079
  54      0.15747090097889
  55      0.17182434098832
  56     0.044891667776871
  57    -8.7275328888337e-18
  58      0.19064177021993
  59     0.045173093100525
  60    2.9320408656573e-16
  61    -0.074770276104788
  62     -0.35522154279359
 Sym= A
 Ene=    0.5800933395
 Spin= Alpha
 Occup=    0.00000
   1    -0.056006821779261
   2     -0.62276928122201
   3     0.052938494908744
   4    -0.094433107820816
   5      -1.4435724476432
   6     -0.15046502685338
   7     -0.19787842296461
   8    -2.0941141754121e-16
   9      -1.1379522454521
  10     -0.93481644883562
  11    3.5681228492259e-16
  12    -0.044083459678081
  13      0.11319042673147
  14       0.6591316390441
  15     -0.23006320196988
  16    -0.047289362710382
  17    -9.811202801969e-16
  18      -1.7630056165452
  19     -0.26603124793589
  20     7.44372554507e-16
  21    -0.010187380071077
  22    0.0051108511730445
  23      0.29211237536927
  24     0.097480012708188
  25     0.043596788861811
  26    -1.0906522218509e-15
  27     -0.86564042832419
  28       1.5742483386916
  29    1.0040645470117e-15
  30    -0.028424559611086
  31       1.1583966997075
  32    -0.010187380072542
  33    0.0051108511723014
  34      0.29211237542203
  35    -0.097480012702507
  36    -0.043596788866618
  37    1.1264335108221e-15
  38      0.86564042832465
  39      -1.5742483387204
  40    -1.3922325653302e-15
  41    -0.028424559612789
  42       1.1583966997202
  43    -0.044083459678304
  44      0.11319042673074
  45        0.659131639066
  46      0.23006320198129
  47     0.047289362709027
  48    7.290530345281e-16
  49       1.7630056166005
  50      0.26603124794211
  51    -7.3285890796291e-16
  52     0.052938494910293
  53    -0.094433107823626
  54       -1.443572447688
  55      0.15046502685533
  56      0.19787842296969
  57    -2.5786430631832e-16
  58       1.1379522454834
  59      0.93481644886297
  60    5.4142286328997e-16
  61    -0.056006821779852
  62     -0.62276928123595
 Sym= A
 Ene=     0.617777228
 Spin= Alpha
 Occup=    0.00000
   1      0.01183336339496
   2      0.50163864532711
   3    -0.053007632225102
   4     0.089104560329181
   5       1.5239224589621
   6      0.08913440343261
   7      0.17379671951348
   8    -1.581280034501e-16
   9       1.1244992564125
  10       0.9403066387888
  11    4.4297675056429e-17
  12     0.013451100344824
  13     0.016122961087577
  14     -0.90449204348889
  15      0.37446224455748
  16    -0.024078787873578
  17    -5.5456468751152e-17
  18       1.7872668480238
  19      0.25967425576933
  20    8.468208167751e-17
  21     0.035073901816681
  22     0.033975261769151
  23      -1.3835755781706
  24      0.19838497375566
  25     -0.11805263309415
  26    -1.4847851361368e-15
  27      0.10899715528044
  28     -0.83868433344667
  29    8.3132851422184e-16
  30     0.049453591753804
  31     -0.41537502656841
  32    -0.035073901816369
  33    -0.033975261769927
  34       1.3835755781562
  35      0.19838497376184
  36     -0.11805263309359
  37    -2.4041515618415e-15
  38      0.10899715524684
  39     -0.83868433339882
  40    2.7121443361763e-15
  41    -0.049453591753068
  42      0.41537502653598
  43    -0.013451100343674
  44    -0.016122961091296
  45      0.90449204347825
  46      0.37446224455187
  47    -0.024078787874486
  48    1.2913205981987e-16
  49       1.7872668479714
  50      0.25967425576412
  51    -7.5240168836892e-16
  52     0.053007632223631
  53    -0.089104560325977
  54      -1.5239224589233
  55     0.089134403426901
  56      0.17379671950748
  57    -2.7644056111451e-16
  58        1.124499256382
  59      0.94030663876218
  60    3.5982127747804e-16
  61    -0.011833363393492
  62     -0.50163864530752
 Sym= A
 Ene=    0.7168553536
 Spin= Alpha
 Occup=    0.00000
   1    -2.3709653302795e-15
   2    4.4542368223845e-16
   3    2.3574161390595e-16
   4    7.5976766587894e-16
   5    -1.1146429007795e-14
   6    1.8048142019362e-16
   7    -1.6602581246806e-15
   8     -0.10658796943728
   9    -6.3646487028099e-15
  10    -5.9364633497596e-15
  11      0.12972180040422
  12    4.2053368307107e-16
  13    -2.7990054728634e-15
  14    -2.6251659327472e-15
  15    -3.0967591413372e-15
  16    -3.4293277259941e-15
  17     -0.16433244242115
  18    -1.4813804270189e-14
  19    3.3006112869798e-15
  20    -0.074133848286311
  21    -4.0500575014296e-16
  22    -9.2299274122489e-15
  23    1.1932848610226e-14
  24    -4.6322265419218e-15
  25    -5.7352632711079e-15
  26     -0.69939546672559
  27    -3.8847376392707e-15
  28    2.3142899081375e-14
  29      0.67536418608953
  30    -2.8342697821368e-15
  31    1.0556322462363e-14
  32    -5.5944743119102e-16
  33    -8.9685019005868e-15
  34    9.0000371867716e-15
  35    4.1672876341242e-15
  36    4.3895713120974e-15
  37     -0.69939546668125
  38    -2.6168256499848e-15
  39    -1.5614631448006e-14
  40      0.67536418597447
  41    -4.4807831399395e-15
  42    6.2248052988692e-15
  43    4.7405375317767e-16
  44    -2.8989750410539e-15
  45    -6.7670240443664e-15
  46    7.6630337519231e-16
  47    8.7456458251344e-16
  48     -0.16433244241754
  49    2.0844260486337e-15
  50    -1.7726818817958e-15
  51    -0.074133848235673
  52    -7.9713421086673e-17
  53    4.9825923397799e-16
  54    -4.8096996985705e-16
  55    -4.5401454047102e-16
  56    -6.7097432993928e-16
  57     -0.10658796941846
  58    -2.0189280196089e-15
  59    -1.1294613553922e-15
  60      0.12972180036539
  61    -1.9610075318807e-16
  62    3.1738179443104e-15
 Sym= A
 Ene=    0.7491628647
 Spin= Alpha
 Occup=    0.00000
   1    -0.0045822602948151
   2       -0.044782327586
   3     -0.01246713540635
   4    -0.060646246241384
   5      0.59247869505931
   6     -0.15379418931892
   7    -0.029084101706563
   8    -3.639883916975e-15
   9       0.4676635616788
  10      0.31991225941313
  11    5.049423252363e-15
  12     -0.02668086406039
  13      0.15372069629353
  14     -0.40724907099291
  15      0.22535588978035
  16     0.099223230740136
  17    -2.0757985003788e-15
  18       0.4813749288646
  19     0.055095552751533
  20    -6.7008612954531e-15
  21     0.036423384440278
  22      0.60209720426269
  23     -0.47507149931139
  24      0.48336582740732
  25      0.16299933350061
  26    -1.8499182925941e-14
  27      -0.5509883455632
  28     -0.65834254305965
  29    2.7941143809668e-14
  30      0.17963765228213
  31     -0.28969969935034
  32     0.036423384439391
  33      0.60209720426225
  34     -0.47507149928914
  35     -0.48336582740371
  36     -0.16299933350878
  37    5.7717441232222e-16
  38      0.55098834555939
  39      0.65834254306502
  40    -1.124777701996e-14
  41       0.1796376522749
  42     -0.28969969935335
  43    -0.026680864060127
  44      0.15372069629198
  45     -0.40724907099719
  46     -0.22535588978157
  47    -0.099223230745088
  48    -2.8610659304502e-15
  49     -0.48137492885321
  50    -0.055095552751179
  51    7.5595319772299e-15
  52    -0.012467135406343
  53    -0.060646246243659
  54      0.59247869505822
  55      0.15379418932321
  56     0.029084101708247
  57    3.2838297416534e-15
  58     -0.46766356168517
  59      -0.3199122594144
  60    -5.7360823902306e-15
  61    -0.0045822602913958
  62    -0.044782327589875
 Sym= A
 Ene=    0.7626383837
 Spin= Alpha
 Occup=    0.00000
   1    1.6482483028453e-14
   2    -1.723848675367e-14
   3    -6.8900504692911e-16
   4    -1.4615644524568e-14
   5    3.5019290494173e-14
   6    -2.3291151126251e-14
   7    -5.6505406412813e-15
   8      0.27073483125571
   9    5.0045397963392e-14
  10    2.7285656823379e-14
  11     -0.40286845213675
  12    -6.7569948540356e-16
  13    -1.522734577853e-15
  14    -2.5714293362191e-14
  15    1.8598458840928e-14
  16    2.3689671581157e-14
  17    0.0079832835843958
  18    -5.807552214845e-15
  19    -3.7341313461319e-15
  20      0.43972952252096
  21    -7.5510201398951e-16
  22    -6.5611167643222e-16
  23    2.5782104689389e-14
  24    -7.7259661431216e-15
  25    3.1408240047181e-14
  26      0.63116536190674
  27    -7.0172121124057e-15
  28    -6.5530208626771e-14
  29      -1.2752604400752
  30    -3.3831457867319e-14
  31    -2.3618519575259e-14
  32    1.6592830702751e-15
  33    9.8788163624892e-15
  34    -2.781895188427e-14
  35    -2.5551464486406e-14
  36    2.7446231403968e-14
  37     -0.63116536197485
  38    1.5420124887225e-14
  39    -4.4319626771794e-14
  40       1.2752604401191
  41    3.7406662285441e-14
  42    1.0281306447012e-14
  43    -4.1730513209002e-16
  44    7.624267939043e-15
  45    1.2180185787787e-14
  46    1.4537431240887e-14
  47    1.4746678154252e-14
  48    -0.0079832835949414
  49    -2.2830387283538e-14
  50    2.8704132614329e-16
  51     -0.43972952248129
  52    1.4414471006879e-16
  53    1.3724116946919e-14
  54    -1.6511512518076e-14
  55    -1.7701275261749e-14
  56    -5.8270487359998e-15
  57     -0.27073483126471
  58    3.805362628923e-14
  59    2.302099513217e-14
  60      0.40286845210753
  61    -2.2002125683332e-14
  62    1.3557457861773e-14
 Sym= A
 Ene=    0.8038508839
 Spin= Alpha
 Occup=    0.00000
   1     -0.18852231470386
   2      0.16411503293656
   3    0.0070405430692431
   4      0.13004091156282
   5       -0.252044856117
   6       0.2405632657011
   7     0.056239994184527
   8    2.6995694890859e-14
   9      -0.5012758197723
  10     -0.25214350964897
  11    -3.999203532436e-14
  12    0.00084446913233424
  13     0.060452029874391
  14      0.21191996773824
  15     -0.18586373541532
  16     -0.22072151476346
  17    8.0209394963635e-16
  18      0.17851001127327
  19     0.019779986225614
  20    4.2507539064001e-14
  21     0.013759193892695
  22     0.087868096743202
  23     -0.38072710535767
  24      0.17982391809488
  25     -0.31369592847388
  26    6.0557824283401e-14
  27    -0.052681269472484
  28      0.58349078082668
  29    -1.2125169753611e-13
  30      0.41164999384837
  31      0.18020442865907
  32    -0.013759193893584
  33    -0.087868096744534
  34      0.38072710534816
  35      0.17982391811021
  36      -0.3136959284748
  37    -5.7604465378444e-14
  38    -0.052681269497062
  39      0.58349078081977
  40    1.1852507548788e-13
  41     -0.41164999384992
  42      -0.1802044286511
  43    -0.00084446913184645
  44    -0.060452029875987
  45     -0.21191996771887
  46     -0.18586373541009
  47     -0.22072151476345
  48    1.8236437781749e-15
  49      0.17851001128317
  50     0.019779986232072
  51    -4.35853366264e-14
  52    -0.0070405430690525
  53     -0.13004091155887
  54      0.25204485609802
  55      0.24056326569765
  56     0.056239994184107
  57    -2.5060750036404e-14
  58     -0.50127581976171
  59     -0.25214350964372
  60    3.7933173509944e-14
  61      0.18852231470758
  62      -0.1641150329347
 Sym= A
 Ene=    0.8356988086
 Spin= Alpha
 Occup=    0.00000
   1     -0.18583491777008
   2    -0.0087979560284589
   3    0.0071744269685904
   4     -0.21675009498454
   5      0.46741078501673
   6     -0.18607408838687
   7     0.023122563982631
   8    -3.5984140086935e-15
   9      0.24089330797566
  10     0.024699783753921
  11    4.1876632286257e-15
  12    -0.021611059770419
  13    -0.046734243534825
  14     -0.51949853535677
  15      0.12188166709371
  16     -0.16954342432969
  17    -1.1365873794857e-16
  18      0.14260335280417
  19      0.16017426069625
  20    -4.3867096010091e-16
  21     0.026521423745762
  22     -0.84999802741614
  23       1.1065188082658
  24      0.46823821137254
  25     -0.32496466443697
  26    2.0430635914116e-15
  27     -0.59886819699122
  28      0.16008744073516
  29    -1.2574356786502e-15
  30       -0.164045961318
  31     -0.24475253540257
  32     0.026521423744298
  33     -0.84999802742496
  34       1.1065188083294
  35     -0.46823821138009
  36      0.32496466443314
  37    5.868664660295e-15
  38      0.59886819697784
  39     -0.16008744074952
  40    -5.9019985057138e-15
  41     -0.16404596132674
  42     -0.24475253539863
  43    -0.021611059770247
  44    -0.046734243538885
  45     -0.51949853536297
  46     -0.12188166709498
  47      0.16954342432757
  48    1.455308635863e-15
  49     -0.14260335278678
  50     -0.16017426069474
  51    -5.3191763258164e-16
  52    0.0071744269686611
  53     -0.21675009498856
  54      0.46741078501387
  55      0.18607408839131
  56    -0.023122563981286
  57    5.1030563075195e-16
  58     -0.24089330797997
  59    -0.024699783751098
  60    1.4548173387673e-16
  61     -0.18583491777012
  62    -0.0087979560318004
 Sym= A
 Ene=    0.9141481683
 Spin= Alpha
 Occup=    0.00000
   1     -0.22648833972744
   2    -0.070219289139186
   3    0.0093309593911499
   4     -0.19893216102172
   5    -0.046945453138307
   6    -0.045489540664995
   7    -0.086831678658392
   8    7.286550891424e-15
   9     -0.13521826937558
  10     -0.15120265739557
  11    -3.4278658691776e-15
  12    0.0026758733895921
  13     -0.21533470529394
  14     -0.17776076669625
  15     0.046437392567291
  16     -0.11876778159311
  17    1.3270075933124e-14
  18      -0.4924780250969
  19     0.029527547571291
  20    -1.6731812674932e-14
  21    -0.049915502244361
  22     -0.50531934810726
  23       2.0596992017285
  24      0.73882966129595
  25     0.024641872336463
  26    5.8838745904612e-16
  27     -0.12260015561237
  28      0.52178847571982
  29    6.1950981651042e-15
  30     -0.30393141100896
  31       0.1773992668986
  32     0.049915502244727
  33       0.5053193480969
  34       -2.059699201716
  35      0.73882966129078
  36      0.02464187234236
  37    -2.2103847191693e-15
  38     -0.12260015560425
  39       0.5217884757116
  40    -2.9243299722229e-15
  41      0.30393141100546
  42     -0.17739926689608
  43    -0.0026758733900892
  44      0.21533470529557
  45      0.17776076668611
  46     0.046437392566243
  47     -0.11876778158973
  48    -6.9711564639171e-15
  49     -0.49247802509576
  50     0.029527547568829
  51    1.0505072287412e-14
  52    -0.0093309593909945
  53      0.19893216101998
  54     0.046945453142412
  55    -0.045489540658718
  56    -0.086831678660061
  57    -2.0761421945792e-16
  58     -0.13521826938126
  59     -0.15120265739414
  60    -3.2032943439519e-15
  61      0.22648833972802
  62     0.070219289136146
 Sym= A
 Ene=    0.9345619156
 Spin= Alpha
 Occup=    0.00000
   1    -5.7829649722843e-15
   2    -4.2190755372788e-15
   3    -1.2619279901287e-15
   4    1.7751972657032e-14
   5    -2.907681335898e-14
   6    1.0508372293882e-15
   7    1.4640242249971e-14
   8     -0.63920732507627
   9    -1.3197658634853e-14
  10    -2.0908514007021e-14
  11      0.78956519578952
  12    -3.8399669038198e-16
  13    1.1559418524026e-14
  14    4.2355587927837e-14
  15    -7.1495762762906e-15
  16    3.5020917861176e-14
  17     -0.16985931066086
  18    6.0706317932756e-15
  19    -4.3126786824086e-14
  20      -0.0164014497859
  21    6.8544959412852e-16
  22    -3.3180133822391e-14
  23     1.07561466597e-14
  24    -2.2100044672958e-14
  25    3.2392606588052e-14
  26      0.17348748389161
  27    3.8876664534585e-14
  28    -7.9134818205648e-14
  29     -0.18070947632309
  30    4.7527803413676e-16
  31    -3.4990503000219e-14
  32    -6.5231512924235e-15
  33    -4.7946631842389e-14
  34    -5.4430084237564e-14
  35    -9.5543208265158e-15
  36    -6.6132113235799e-15
  37      0.17348748389894
  38    -6.4880258317591e-14
  39    5.6953593632637e-14
  40     -0.18070947632305
  41    -4.5075785265532e-14
  42    6.1243856801176e-15
  43    -6.977351609402e-15
  44    8.9296101091791e-14
  45    3.2469385451893e-14
  46    9.5358034175224e-14
  47    -1.8494630655617e-13
  48     -0.16985931064705
  49    -1.4133788871496e-13
  50    2.0788579804207e-13
  51    -0.016401449824203
  52    -7.943007282048e-15
  53    1.0579679481492e-13
  54    -4.5451397773857e-14
  55    7.486920732119e-14
  56    -1.4020248708252e-13
  57      -0.6392073251098
  58    -3.5971395207986e-14
  59    1.8281259988339e-13
  60      0.78956519584421
  61    -5.8573654040519e-14
  62    -4.6653410789339e-14
 Sym= A
 Ene=    0.9500936666
 Spin= Alpha
 Occup=    0.00000
   1    9.6709411384612e-14
   2    1.390233911615e-13
   3    1.7958036410577e-14
   4    -2.6294059360504e-13
   5    1.5570090114308e-13
   6    2.058862246169e-13
   7    -3.3406022183437e-13
   8      0.38213087832761
   9    -9.9818562464671e-14
  10    4.4358517597879e-13
  11     -0.23990083600545
  12    1.6781306903014e-14
  13    -2.2384695969859e-13
  14    -1.2558100092289e-13
  15    2.2472664687689e-13
  16    -4.2313245351447e-13
  17      0.56505167892479
  18    -2.8386406626355e-13
  19    4.7781483513388e-13
  20     -0.76459972468481
  21    1.103198677886e-14
  22    1.670481248966e-13
  23    1.3085488366635e-13
  24    4.7977920722628e-14
  25    -8.3909661333641e-14
  26     -0.12037143995082
  27    -2.0948915919567e-13
  28    2.8020126014876e-13
  29      0.61270992601259
  30    1.0569908950007e-13
  31    4.1343558753468e-14
  32    1.5683905565319e-14
  33    1.6814456650527e-13
  34    1.2198618350587e-13
  35    -3.1803793644835e-14
  36    4.9280410847319e-14
  37      0.12037143995456
  38    2.7380646421168e-13
  39    -1.992405934492e-13
  40     -0.61270992602215
  41    1.2873822999664e-13
  42    -2.2361301958742e-14
  43    2.321451165715e-14
  44    -2.9543450935375e-13
  45    -8.6233191858532e-14
  46    -3.046848152331e-13
  47    5.064800265269e-13
  48     -0.56505167892969
  49    3.6637316924257e-13
  50    -5.7250479692789e-13
  51       0.7645997247095
  52    2.2394103031492e-14
  53    -3.4140163661895e-13
  54    1.7676755955055e-13
  55    -3.0898268009502e-13
  56    4.4597332981869e-13
  57      -0.3821308783243
  58    1.8401963243733e-13
  59    -5.8954253030675e-13
  60      0.23990083598502
  61    1.0520496847371e-13
  62    1.9330287378883e-13
 Sym= A
 Ene=    0.9636406292
 Spin= Alpha
 Occup=    0.00000
   1      0.16082338507033
   2     0.098684989017983
   3     0.019084772425311
   4     -0.23735629595384
   5     0.096711011224315
   6      0.20389547866422
   7     -0.32432472602497
   8    1.8604986457058e-13
   9     -0.11216213113826
  10      0.42724617147367
  11    -2.056866986449e-13
  12     0.018136747513157
  13     -0.19036661741044
  14    0.0090383148701383
  15      0.23017406903539
  16      -0.4307544495984
  17    9.694176940788e-14
  18     -0.31243695798586
  19      0.51427842955521
  20    -7.9682979853875e-14
  21     0.021477187536613
  22     0.048126986546326
  23     0.090384238245835
  24     -0.10206276250318
  25      0.12563703413027
  26    -6.071125478606e-14
  27     -0.12145221021304
  28     -0.20329554434892
  29    1.3090773790442e-13
  30      0.15111144711852
  31     -0.21091232851597
  32     -0.02147718754121
  33    -0.048126986605535
  34    -0.090384238288267
  35     -0.10206276249039
  36      0.12563703410595
  37    -6.6981361611329e-16
  38     -0.12145221029568
  39     -0.20329554426312
  40    -7.1341011016683e-14
  41     -0.15111144715727
  42      0.21091232850927
  43    -0.018136747519745
  44       0.1903666174959
  45    -0.009038314824426
  46      0.23017406912416
  47     -0.43075444976129
  48    -4.2349427746652e-14
  49     -0.31243695809735
  50      0.51427842974052
  51    1.0184360509661e-13
  52    -0.019084772432339
  53      0.23735629605698
  54    -0.096711011285606
  55      0.20389547874366
  56     -0.32432472615447
  57    5.3271810207664e-14
  58     -0.11216213117673
  59       0.4272461716477
  60    -9.4758836089809e-14
  61     -0.16082338511145
  62    -0.098684989068817
 Sym= A
 Ene=    0.9673036967
 Spin= Alpha
 Occup=    0.00000
   1     -0.11307767827624
   2     -0.13314137980998
   3    -0.018860558460097
   4      0.27269933097791
   5     -0.15647103007986
   6     -0.20771025065715
   7      0.34402114160509
   8    5.6308653363072e-13
   9     0.099150297642217
  10     -0.45878939329253
  11    -4.2362175418484e-13
  12    -0.017322786260505
  13       0.2269951532596
  14      0.12023542980748
  15     -0.23502779666546
  16      0.43703754793628
  17    6.9225841582048e-13
  18      0.30374534457558
  19     -0.49582560879333
  20    -8.88573112915e-13
  21    -0.012216063865951
  22       -0.165434836816
  23    -0.099952813211795
  24    -0.031116293241188
  25     0.066672396457815
  26    -1.6853361922945e-13
  27      0.21706076250354
  28     -0.24289313344052
  29    7.3040945952621e-13
  30     -0.10459136994731
  31    -0.028702990526895
  32    -0.012216063857916
  33     -0.16543483680008
  34    -0.099952813164981
  35     0.031116293277036
  36    -0.066672396505889
  37    8.3070062487284e-14
  38     -0.21706076245982
  39      0.24289313351379
  40    -6.3968755283735e-13
  41     -0.10459136988949
  42    -0.028702990606937
  43    -0.017322786253864
  44      0.22699515318871
  45      0.12023542980911
  46      0.23502779657992
  47     -0.43703754777135
  48    -6.0687098258604e-13
  49     -0.30374534445522
  50      0.49582560859659
  51    8.8893937228979e-13
  52    -0.018860558452807
  53      0.27269933088909
  54     -0.15647103004448
  55      0.20771025058377
  56      -0.3440211414849
  57    -2.5680288009232e-13
  58    -0.099150297602662
  59      0.45878939313662
  60    4.8139338232704e-14
  61     -0.11307767821481
  62     -0.13314137977528
 Sym= A
 Ene=    0.9925991726
 Spin= Alpha
 Occup=    0.00000
   1     -0.42572968356431
   2      0.31724186520345
   3    -0.015709272339606
   4    -0.011462121876744
   5      -0.1098552577754
   6      0.55417997564141
   7     -0.15295492397538
   8    5.3088953105264e-13
   9     -0.60045749277865
  10      0.15713762082124
  11    -9.3360386461147e-13
  12     0.019026658840687
  13      -0.1311149872596
  14      0.27437381546301
  15      0.13669898850152
  16       0.3765226588363
  17    -4.3991451957786e-13
  18     0.085872423460247
  19     -0.42370350812069
  20    8.1405476162532e-13
  21    -0.0056701112104673
  22      -0.1843664582007
  23      0.17017652224186
  24     0.097047804624962
  25     0.051466324128201
  26    -4.1316164176849e-13
  27     -0.16612418741739
  28    -0.097984612608967
  29    3.4812088980061e-13
  30     0.041578894822858
  31     -0.15398643463032
  32    -0.0056701112097838
  33     -0.18436645819554
  34      0.17017652208191
  35    -0.097047804607035
  36    -0.051466324129249
  37    4.0643423086289e-13
  38       0.1661241874613
  39     0.097984612681934
  40    -3.5000917004968e-13
  41     0.041578894811019
  42     -0.15398643465373
  43     0.019026658842557
  44     -0.13111498727426
  45      0.27437381552492
  46       -0.136698988521
  47     -0.37652265889585
  48    4.2784139683666e-13
  49    -0.085872423499759
  50      0.42370350819081
  51    -7.800220417148e-13
  52    -0.015709272341394
  53    -0.011462121883699
  54      -0.1098552577766
  55     -0.55417997571127
  56      0.15295492399883
  57    -5.0120875897538e-13
  58      0.60045749284869
  59     -0.15713762086533
  60    8.8593917783699e-13
  61     -0.42572968360584
  62      0.31724186524433
 Sym= A
 Ene=    0.9953359281
 Spin= Alpha
 Occup=    0.00000
   1    -4.2058851793816e-13
   2    3.1388621474456e-13
   3    -1.43361901069e-14
   4    -2.250185490414e-14
   5    -1.1320846599305e-13
   6    5.6103028953035e-13
   7    -1.6433053263882e-13
   8     -0.46968152939565
   9    -6.0931705942858e-13
  10    1.5179022256435e-13
  11      0.80724974538177
  12    2.0500811310352e-14
  13    -1.4414925732033e-13
  14    2.4240671942009e-13
  15    1.4669713948864e-13
  16    3.303950202458e-13
  17      0.35155276426183
  18    3.3369169394307e-14
  19    -3.6641231903665e-13
  20      -0.6609166637263
  21    -5.490438676106e-15
  22    -2.0873714090882e-13
  23    3.8436201256766e-13
  24    1.2320186850644e-13
  25    6.2811915578285e-14
  26      0.36160760738285
  27    -1.4625804366639e-13
  28    -3.8046213627459e-14
  29     -0.32965745754652
  30    7.6931155861918e-14
  31    -1.6494410836415e-13
  32    -6.4946213298828e-15
  33    -2.0811935498012e-13
  34    3.0588517258356e-14
  35    -1.0223494023359e-13
  36    -5.9783771986236e-14
  37     -0.36160760736675
  38    2.4846963540263e-13
  39    1.9681880337311e-13
  40      0.32965745749684
  41    3.0334383353753e-14
  42    -2.071896255835e-13
  43    2.4382050643384e-14
  44    -1.7650624464061e-13
  45    3.950092472256e-13
  46    -1.8462129166041e-13
  47    -4.9970250546412e-13
  48     -0.35155276431442
  49    -1.3741474187373e-13
  50    5.6907232606145e-13
  51      0.66091666383177
  52    -1.9684005449291e-14
  53    -3.0042681440745e-14
  54    -1.2811805749906e-13
  55    -7.2841631961629e-13
  56    2.129770258179e-13
  57      0.46968152936202
  58    7.8430195799345e-13
  59    -2.4045518110744e-13
  60     -0.80724974539019
  61    -5.4524814802805e-13
  62    4.1912594851607e-13
 Sym= A
 Ene=     1.007476434
 Spin= Alpha
 Occup=    0.00000
   1      0.32211873396148
   2     -0.31399536664057
   3     0.012085390957075
   4     0.064970413835743
   5      0.02920068083389
   6     -0.54132741675108
   7       0.1950919693002
   8    4.692401261431e-14
   9      0.55359817644591
  10     -0.33889995365452
  11    -7.4956047409956e-14
  12    -0.014431808946425
  13      0.12484137081109
  14     -0.47040371461725
  15     -0.15236896659146
  16     -0.43313612999006
  17    -3.1682892963563e-14
  18     -0.26017470833152
  19      0.52587229726226
  20    4.9130718585984e-14
  21    -0.0030579031657936
  22    -0.029588125305012
  23       1.1322991769257
  24       0.1005694611836
  25    0.00068534548782884
  26    -6.117405999931e-14
  27      0.33752288241849
  28      0.50299486221088
  29    5.7731505093372e-14
  30     0.097901389394471
  31      0.14905446748747
  32    0.0030579031664679
  33     0.029588125327366
  34      -1.1322991769512
  35      0.10056946119608
  36    0.00068534549637666
  37    4.869553101665e-14
  38      0.33752288239502
  39      0.50299486219485
  40    6.814177095331e-15
  41     -0.09790138940201
  42     -0.14905446746343
  43     0.014431808943726
  44       -0.124841370792
  45      0.47040371457963
  46     -0.15236896657266
  47     -0.43313612994408
  48    1.4233593253275e-13
  49     -0.26017470832276
  50      0.52587229721233
  51    -2.4961477703857e-13
  52    -0.012085390955157
  53    -0.064970413833507
  54    -0.029200680818802
  55     -0.54132741667597
  56      0.19509196927844
  57    -7.6513876740174e-14
  58      0.55359817636559
  59      -0.3388999536336
  60    1.7676678302051e-13
  61      -0.3221187339057
  62      0.31399536659837
 Sym= A
 Ene=     1.051813681
 Spin= Alpha
 Occup=    0.00000
   1    7.7891389330751e-15
   2    -8.1053482620183e-14
   3    -7.9034998037392e-16
   4    3.9645799519796e-14
   5    8.1850463244369e-14
   6    -1.6438348270223e-14
   7    8.780317828205e-14
   8      0.11763378339084
   9    3.6198793736424e-14
  10    -1.2868451879395e-13
  11     -0.51319797888816
  12    -1.7160616854764e-16
  13    7.5342336025409e-14
  14    -1.9256515484456e-13
  15    -1.3071677406419e-14
  16    -3.7901033640126e-14
  17     -0.62915804483757
  18    4.5110764404095e-14
  19    1.5885426667031e-13
  20       1.1227858945025
  21    -3.2379365429874e-17
  22    -3.1276699138173e-15
  23    -3.1647970158603e-13
  24    3.7297094838391e-14
  25    8.1878973795965e-14
  26     0.085757308234525
  27    -3.4574710897585e-13
  28    -3.6503386020285e-14
  29     -0.37852420121264
  30    5.4073252041364e-14
  31    -8.118384765959e-14
  32    -5.7389595156049e-15
  33    1.6886314778942e-13
  34    -1.1175755348085e-13
  35    5.0942399383285e-14
  36    3.4096234643573e-13
  37     0.085757308292409
  38    -2.431363845011e-13
  39    -1.0105293400898e-12
  40     -0.37852420125761
  41    -1.1284992729872e-13
  42    7.3834811410143e-13
  43    -3.4762340502347e-15
  44    -3.7631935350933e-14
  45    -3.4462585136353e-14
  46    -6.5588766471638e-14
  47    -7.5060317082534e-14
  48     -0.62915804479818
  49    3.0771891272026e-13
  50    2.8064036309101e-13
  51       1.1227858944417
  52    -5.1269849129041e-15
  53    4.327479951062e-14
  54    -3.2810657286797e-13
  55    1.4382988512336e-14
  56    1.2184167485645e-13
  57      0.11763378336305
  58    2.7804563091717e-14
  59    -1.6498121371749e-13
  60     -0.51319797883615
  61    -1.4933858145034e-14
  62    1.5317720460661e-13
 Sym= A
 Ene=     1.061895691
 Spin= Alpha
 Occup=    0.00000
   1      0.11498558132888
   2      0.16426402158938
   3    -0.011088410450563
   4      0.17884515924829
   5     -0.80933918553973
   6    -0.029742047325147
   7     -0.13578163098308
   8    -1.9821282451774e-14
   9     -0.10187333022591
  10      0.25275130806712
  11    8.819267258947e-14
  12    -0.016148898778679
  13      0.14450529302571
  14     -0.61760050635452
  15      0.21532676119614
  16      0.20327220471118
  17    1.0974185749181e-13
  18      -0.8774045751578
  19     -0.58619072556819
  20    -1.9385306310516e-13
  21    -0.017520743130766
  22      0.32892224854817
  23      -1.1321972863072
  24    -0.038254670707508
  25     -0.72550646447833
  26    -1.0571476831471e-14
  27     -0.23955837029764
  28       2.8434471639611
  29    6.1906465323341e-14
  30      -0.1352942838137
  31       1.8938808014474
  32    -0.017520743131349
  33      0.32892224855342
  34      -1.1321972862644
  35     0.038254670708498
  36      0.72550646450187
  37    -1.3277690446398e-14
  38      0.23955837026041
  39      -2.8434471640307
  40    5.7963740727448e-14
  41     -0.13529428382002
  42       1.8938808014931
  43     -0.01614889877907
  44      0.14450529302187
  45     -0.61760050635586
  46     -0.21532676119822
  47     -0.20327220471201
  48    9.8491639818122e-14
  49      0.87740457518507
  50      0.58619072558721
  51    -1.7661336888419e-13
  52    -0.011088410450491
  53      0.17884515924915
  54     -0.80933918556572
  55     0.029742047332266
  56      0.13578163099311
  57    -2.008062106813e-14
  58      0.10187333022403
  59     -0.25275130808045
  60    8.2815706184006e-14
  61       0.1149855813324
  62      0.16426402159923
 Sym= A
 Ene=      1.08818061
 Spin= Alpha
 Occup=    0.00000
   1     0.060275264854143
   2      0.29475218599107
   3    -0.0036937541429122
   4     0.030635484136006
   5     -0.68566149641762
   6     -0.17208305526598
   7     -0.28642164082608
   8    4.6924799548867e-14
   9     0.066154081046877
  10      0.38389421663994
  11    -1.6984245372879e-13
  12    -0.010842249975341
  13     -0.14590787924908
  14      0.11319902781708
  15      0.07845724630529
  16     0.064392556195544
  17    -1.8974477791465e-13
  18     -0.66889320086171
  19     -0.59308389389722
  20    3.4334863780995e-13
  21    -0.011703535859835
  22      0.27687776266326
  23      0.70655908618614
  24     -0.10199830694053
  25     -0.71886078079297
  26    2.4171858571284e-14
  27        1.095403115671
  28        1.937047165189
  29    -1.13041036918e-13
  30     -0.25657962194857
  31       1.4389472926403
  32     0.011703535859281
  33     -0.27687776263602
  34     -0.70655908623434
  35     -0.10199830694162
  36     -0.71886078076168
  37    2.4618612981096e-14
  38       1.0954031156976
  39       1.9370471650726
  40    -1.1374229795954e-13
  41      0.25657962193924
  42      -1.4389472925609
  43     0.010842249975718
  44      0.14590787924834
  45     -0.11319902784471
  46     0.078457246298702
  47     0.064392556196151
  48    -1.9055860030945e-13
  49     -0.66889320083139
  50     -0.59308389389992
  51    3.4279082776496e-13
  52    0.0036937541419276
  53    -0.030635484126927
  54      0.68566149639969
  55     -0.17208305526714
  56     -0.28642164082817
  57    4.3869012227457e-14
  58     0.066154081048592
  59      0.38389421665329
  60    -1.6577670965795e-13
  61    -0.060275264861441
  62     -0.29475218599086
 Sym= A
 Ene=     1.101094916
 Spin= Alpha
 Occup=    0.00000
   1     -0.59992149943676
   2      0.14513677568785
   3    -0.030655042783954
   4      0.22774744769882
   5      0.18276734555628
   6     0.015685969258522
   7      0.12259064151448
   8    -8.5952313927346e-15
   9      0.17468162241545
  10     -0.61013739214866
  11    2.7851272168619e-14
  12     0.031734697751283
  13     -0.23006007651789
  14     -0.13681860242493
  15    -0.086608054245231
  16     -0.22091799157663
  17    3.0071211642717e-14
  18      0.13981912047678
  19      0.70855658609488
  20    -5.2983206036537e-14
  21    -0.00087644717738675
  22      0.67738467620908
  23     -0.62496683229664
  24     0.050154623701336
  25     -0.24035236818087
  26    -9.1281195684116e-17
  27     -0.48824417418295
  28      0.64270728015929
  29    1.3466007356806e-14
  30     -0.14717517929574
  31      0.51774153540654
  32    -0.00087644717772761
  33       0.6773846762207
  34     -0.62496683227237
  35    -0.050154623690036
  36      0.24035236819775
  37    -2.7903285091029e-15
  38      0.48824417414031
  39     -0.64270728020384
  40    1.5623814393558e-14
  41     -0.14717517930883
  42      0.51774153544429
  43     0.031734697751707
  44     -0.23006007652789
  45     -0.13681860241175
  46     0.086608054241227
  47      0.22091799157974
  48    2.5987596529143e-14
  49     -0.13981912045819
  50     -0.70855658609503
  51    -4.7153585028139e-14
  52    -0.030655042785184
  53      0.22774744770894
  54      0.18276734553282
  55    -0.015685969253202
  56     -0.12259064150608
  57    -6.1601171120532e-15
  58     -0.17468162242489
  59      0.61013739215011
  60    2.3158711047862e-14
  61      -0.5999214994542
  62       0.1451367757089
 Sym= A
 Ene=     1.152483712
 Spin= Alpha
 Occup=    0.00000
   1      0.72518844166478
   2     -0.52588295970269
   3     0.044223189310082
   4     -0.42365570268852
   5      0.40576085268986
   6     0.058747059815718
   7     0.036365292627506
   8    1.9485449577664e-16
   9     -0.25044093024258
  10      0.47450100781333
  11    -1.2179068823814e-18
  12    -0.025055796472346
  13       0.1965771890746
  14     -0.31456536249054
  15    -0.073084556249505
  16       0.1925339809861
  17    -4.0122499749202e-16
  18       0.2117387699711
  19      -0.5746988574444
  20    -1.8153125398677e-15
  21    0.0012064993682904
  22     -0.13787238091466
  23     -0.47303400909465
  24      0.29235312639387
  25    -0.0076225170352187
  26    -4.9881943905779e-15
  27     -0.53203043237056
  28    -0.0040969418353023
  29    8.0611599309864e-15
  30      0.23273582312756
  31     -0.09326945103856
  32    -0.0012064993683066
  33      0.13787238089373
  34      0.47303400910803
  35       0.2923531263993
  36    -0.0076225170438975
  37    2.6547981686271e-15
  38     -0.53203043240203
  39    -0.0040969418032249
  40    -4.6937282239441e-15
  41     -0.23273582312263
  42     0.093269451013239
  43      0.02505579647112
  44     -0.19657718906682
  45      0.31456536249772
  46    -0.073084556250024
  47      0.19253398097998
  48    2.314473482307e-15
  49      0.21173876996938
  50     -0.57469885741951
  51    -2.8199039360334e-15
  52    -0.044223189309665
  53      0.42365570268983
  54     -0.40576085270853
  55     0.058747059823059
  56     0.036365292642572
  57    -4.2963933813046e-16
  58     -0.25044093024842
  59      0.47450100777868
  60    1.8786477000452e-15
  61     -0.72518844165844
  62      0.52588295972396
 Sym= A
 Ene=     1.191592041
 Spin= Alpha
 Occup=    0.00000
   1     -0.41495940759236
   2       1.1432004485807
   3     -0.01267964098965
   4      0.18487279200882
   5    -0.096549981578931
   6     -0.33381031936205
   7     -0.59418367406954
   8    -4.1675659888621e-15
   9      0.61882310168205
  10       1.0758045278714
  11    6.5516977580638e-15
  12    -0.018989857567061
  13     0.023996092001367
  14      0.28163049632287
  15     -0.24473411521194
  16     0.033305780865347
  17    2.7664844235842e-15
  18      0.89143782667658
  19     -0.30035503098155
  20    -5.7237393008023e-15
  21    -0.0019172703473105
  22    -0.054572752054062
  23      -0.3694795879373
  24     -0.15858144036328
  25      0.17392110983272
  26    1.4795934976231e-15
  27       1.0128891792355
  28      -1.3755212590239
  29    -7.4994804655704e-16
  30    -0.053530700344719
  31     -0.78070230341944
  32    -0.0019172703471752
  33    -0.054572752000277
  34     -0.36947958828726
  35       0.1585814403199
  36     -0.17392110989172
  37    3.7076674389281e-16
  38      -1.0128891791129
  39       1.3755212592278
  40    3.1629106988884e-15
  41    -0.053530700283987
  42     -0.78070230356846
  43    -0.018989857572226
  44     0.023996092065783
  45      0.28163049619585
  46       0.2447341152704
  47    -0.033305780875697
  48    6.5655580076792e-15
  49     -0.89143782690218
  50      0.30035503100484
  51    -9.8056349459442e-15
  52    -0.012679640988829
  53       0.1848727920293
  54    -0.096549981514198
  55       0.3338103194067
  56      0.59418367416333
  57    9.9901140628352e-16
  58     -0.61882310177987
  59      -1.0758045280961
  60     1.91329459149e-15
  61      -0.4149594076218
  62       1.1432004487372
 Sym= A
 Ene=     1.201529951
 Spin= Alpha
 Occup=    0.00000
   1      0.23896728164574
   2     -0.91742086594718
   3    0.00062640740048725
   4     -0.15948403481802
   5      -0.3050979453043
   6      0.25717389045126
   7      0.53357454462268
   8    2.163852385226e-15
   9     -0.56782949358965
  10      -1.1990847690724
  11    -3.2991545748994e-15
  12      0.02565833916388
  13     -0.33586751800049
  14      0.67593878853722
  15      0.31154487919946
  16    -0.036863661988146
  17    -1.2284253627715e-15
  18      -1.2050227534575
  19     0.073099984684989
  20    2.6917596918516e-15
  21    -8.7234324746727e-05
  22     -0.34903721363269
  23       1.9669506882709
  24     -0.20852254853703
  25     -0.30302720026871
  26    -1.0837500666152e-15
  27      0.63947064277451
  28       1.0880132127034
  29    4.1301507175181e-16
  30     -0.28888241678813
  31      0.75035362019964
  32    8.7234325036398e-05
  33      0.34903721364123
  34         -1.9669506882
  35     -0.20852254856636
  36     -0.30302720023763
  37    3.1584598083623e-17
  38      0.63947064295969
  39       1.0880132124583
  40    3.4323128439524e-17
  41      0.28888241679729
  42     -0.75035362006174
  43    -0.025658339160424
  44      0.33586751799688
  45     -0.67593878859029
  46      0.31154487915643
  47    -0.036863661981399
  48    5.1619871850463e-16
  49      -1.2050227532996
  50     0.073099984628556
  51    -6.8456085228258e-16
  52    -0.00062640739811267
  53      0.15948403478552
  54      0.30509794532245
  55      0.25717389039009
  56      0.53357454451496
  57    1.7007239822574e-16
  58     -0.56782949347739
  59       -1.199084768879
  60    2.5029036711089e-18
  61     -0.23896728157038
  62      0.91742086574121
 Sym= A
 Ene=     1.254210978
 Spin= Alpha
 Occup=    0.00000
   1      0.23709174349504
   2     -0.41423113719018
   3     0.013588509097033
   4     0.082167821300275
   5      0.80861750338112
   6      0.17616317264646
   7     0.020608489507079
   8    -1.5975861859872e-15
   9     -0.10937373950748
  10      0.25876159672696
  11    1.9589508192409e-15
  12    0.0027493326315962
  13      0.28916209753729
  14     -0.20232540207339
  15     -0.21777803613501
  16     -0.17846295086034
  17    -6.6741979581505e-16
  18       1.2885533603811
  19      0.56563069752598
  20    -9.7213889139468e-16
  21    -0.0039543613546906
  22        0.972807201219
  23      -5.2060629939464
  24      0.16070365203852
  25        0.038595743453
  26    -6.0297142585445e-16
  27      -2.2958238655819
  28      -1.8232594263964
  29    1.5094747391548e-15
  30     -0.60612871974841
  31      0.32151511006595
  32    0.0039543613549347
  33     -0.97280720122845
  34         5.20606299397
  35      0.16070365204244
  36     0.038595743449985
  37    8.0160575835366e-16
  38      -2.2958238655763
  39      -1.8232594264288
  40    -1.0848041437162e-15
  41      0.60612871976259
  42     -0.32151511006359
  43    -0.0027493326313507
  44     -0.28916209753797
  45      0.20232540207949
  46     -0.21777803614558
  47     -0.17846295085863
  48    6.7774993829523e-16
  49       1.2885533604298
  50      0.56563069752361
  51    -9.9344587516517e-16
  52    -0.013588509097579
  53     -0.08216782128814
  54     -0.80861750342522
  55      0.17616317264651
  56     0.020608489502885
  57    -8.4460484621225e-16
  58     -0.10937373949663
  59      0.25876159674865
  60    1.333145589292e-15
  61     -0.23709174349927
  62      0.41423113719164
 Sym= A
 Ene=       1.2704911
 Spin= Alpha
 Occup=    0.00000
   1      0.20097327853141
   2     -0.27008332976655
   3     0.026472119879922
   4     -0.69641852607843
   5       1.9104485186853
   6    0.00062384580615147
   7    -0.061316110420861
   8    -6.672321535577e-16
   9      0.40378841422187
  10      0.62207118704015
  11    -1.749690357601e-16
  12    -0.0063074920417115
  13     -0.20349214266278
  14      0.35754738825125
  15     -0.39737267114797
  16       0.0925869661851
  17    3.6063612074459e-17
  18        1.886130695981
  19     -0.22195124825139
  20    3.0171916089582e-16
  21    -0.0040273713176992
  22      0.49245190044767
  23      -1.3188794998299
  24     0.098703129681327
  25    -0.079421772333342
  26    -1.7750437960912e-16
  27      0.52012352138367
  28      -1.4471633790875
  29    3.5976925251953e-16
  30     -0.52481819285999
  31    -0.069185284692338
  32    -0.0040273713176131
  33      0.49245190042818
  34      -1.3188794997145
  35    -0.098703129675312
  36     0.079421772334824
  37    -3.2451994598756e-16
  38     -0.52012352144993
  39       1.4471633790455
  40    -1.9123047491196e-16
  41     -0.52481819284741
  42    -0.069185284696021
  43    -0.0063074920417493
  44     -0.20349214267413
  45      0.35754738826362
  46       0.3973726711442
  47    -0.092586966188022
  48    -2.0458493784771e-16
  49      -1.8861306959599
  50        0.221951248263
  51    8.6175428289632e-16
  52     0.026472119879341
  53     -0.69641852608272
  54       1.9104485186763
  55    -0.00062384579994996
  56     0.061316110420923
  57    5.2610330101473e-16
  58     -0.40378841423134
  59     -0.62207118703228
  60    -1.0138771119783e-15
  61      0.20097327852141
  62     -0.27008332975499
 Sym= A
 Ene=     1.395380077
 Spin= Alpha
 Occup=    0.00000
   1     -0.26815394721651
   2     -0.47296999438065
   3    0.0013075628624516
   4      -0.7323918627576
   5      0.96836562579952
   6     -0.13980189471252
   7      0.17490185451723
   8    -3.2335780409252e-16
   9      0.30208363627888
  10     -0.61284319335805
  11    4.7841426276832e-16
  12    -0.0032818798516792
  13     -0.29109070379938
  14      0.68845223113379
  15      0.13371659282945
  16      0.08159253107229
  17    -3.6523637479791e-16
  18     -0.11284581635879
  19     -0.14706957119275
  20    -7.3386778661701e-16
  21     0.024545017989242
  22       1.1958720112898
  23       -3.502384010945
  24       0.1851343720195
  25      0.11465942644889
  26    -1.2136609920319e-15
  27     -0.59119026424033
  28     -0.25699733413471
  29    3.0813135901047e-15
  30        0.253683185904
  31      0.39338468729108
  32    -0.024545017990504
  33      -1.1958720113062
  34       3.5023840110873
  35      0.18513437198526
  36      0.11465942645306
  37    1.3887967603735e-15
  38     -0.59119026407888
  39     -0.25699733411226
  40    -2.9877598453298e-15
  41      -0.2536831859342
  42     -0.39338468732125
  43     0.003281879852484
  44      0.29109070386481
  45     -0.68845223130715
  46      0.13371659285401
  47      0.08159253109443
  48    -1.3935157521899e-16
  49     -0.11284581643587
  50     -0.14706957127476
  51    9.8201068295166e-16
  52    -0.0013075628618296
  53      0.73239186284427
  54     -0.96836562584054
  55     -0.13980189473979
  56      0.17490185453169
  57    -1.3432490682985e-17
  58      0.30208363631419
  59     -0.61284319343232
  60    -2.1849341370683e-16
  61      0.26815394725343
  62      0.47296999440048
 Sym= A
 Ene=      1.40725738
 Spin= Alpha
 Occup=    0.00000
   1     -0.31040669858234
   2     -0.18606185117491
   3    -0.0038764167974766
   4     -0.77554283213121
   5      0.40004221097979
   6     -0.23990633102029
   7       0.1316905432915
   8    1.6354876929318e-15
   9      0.30909325734626
  10      -0.6349932707424
  11    -2.7176362038022e-15
  12    -0.0069359821661213
  13     -0.60839468608195
  14       1.5429462712639
  15      0.18592641641298
  16      0.19694014912928
  17    -4.7878555564371e-16
  18     -0.60742774623529
  19     -0.73160961513484
  20    2.0152206931193e-15
  21     0.012513779212574
  22       0.1559149996375
  23        -1.30830050478
  24     -0.28600992876703
  25     0.030810131356661
  26    -5.0253148589896e-16
  27        1.381974831861
  28      0.23734975488412
  29    1.6260694989401e-16
  30      0.28627393833737
  31      0.28287676864441
  32     0.012513779209743
  33       0.1559149995054
  34      -1.3083005044102
  35      0.28600992878892
  36    -0.030810131344138
  37    4.6635637540071e-16
  38      -1.3819748319245
  39     -0.23734975489941
  40    -1.0877192215014e-15
  41      0.28627393830578
  42      0.28287676859907
  43    -0.0069359821657392
  44     -0.60839468604774
  45       1.5429462711803
  46     -0.18592641639381
  47     -0.19694014911873
  48    -2.7386568475828e-16
  49      0.60742774620006
  50       0.7316096151137
  51    6.5333860687382e-16
  52    -0.0038764167975582
  53     -0.77554283205144
  54      0.40004221089044
  55      0.23990633100428
  56     -0.13169054327053
  57    5.0191558337844e-17
  58     -0.30909325731861
  59      0.63499327066565
  60    -2.0678031849014e-16
  61     -0.31040669855141
  62     -0.18606185112135
 Sym= A
 Ene=      1.45467014
 Spin= Alpha
 Occup=    0.00000
   1      -0.1414394032624
   2     -0.12280043276131
   3    -0.010178456093993
   4    -0.037548646537601
   5     -0.26114718029715
   6     0.036025047248913
   7      0.06328659956677
   8    6.4883651561439e-16
   9    -0.098214450262652
  10     -0.43232026254713
  11    -1.3412619347621e-15
  12    -0.013015443721557
  13      0.25032245082744
  14       1.0439686575753
  15      0.43139904643864
  16     -0.02169983540713
  17    -5.8885710305764e-16
  18     -0.55667138653477
  19      0.00130066625117
  20    1.8939541041579e-15
  21    -0.0092774343905584
  22     0.087190466606441
  23      0.36505742168576
  24     -0.17437328670352
  25      0.20639453097761
  26    5.4043025667805e-16
  27       1.1048705717985
  28      -2.3363426545595
  29    -1.1520238571361e-15
  30     -0.78697704558452
  31     -0.64282747408926
  32    -0.0092774343907364
  33     0.087190466603242
  34      0.36505742170996
  35      0.17437328670058
  36     -0.20639453097701
  37    -5.7348858517516e-16
  38      -1.1048705717849
  39       2.3363426545482
  40    1.1782077442556e-15
  41     -0.78697704558444
  42     -0.64282747408842
  43     -0.01301544372148
  44      0.25032245083504
  45       1.0439686575629
  46     -0.43139904644244
  47     0.021699835407389
  48    8.3739866476718e-17
  49       0.5566713865597
  50    -0.001300666252279
  51    2.2348019923642e-16
  52    -0.010178456094028
  53    -0.037548646528021
  54     -0.26114718032375
  55    -0.036025047250235
  56    -0.063286599566103
  57    5.8331310081619e-16
  58     0.098214450272645
  59      0.43232026255039
  60    -1.0398002468146e-15
  61     -0.14143940326031
  62      -0.1228004327608
 Sym= A
 Ene=     1.550535597
 Spin= Alpha
 Occup=    0.00000
   1     -0.13506127417325
   2       0.1621477542454
   3    -0.00060882667747563
   4     -0.79295566984761
   5       2.8872106132887
   6     -0.10627412779905
   7    -0.055084996061719
   8    -4.7900901946213e-16
   9       1.1965665763747
  10      0.70282658270768
  11    2.3599582729918e-16
  12    0.0023349533196734
  13     -0.37448233998635
  14     -0.16520462108567
  15     -0.50128956153548
  16    -0.030598991460037
  17    1.2129149165686e-16
  18       2.6081765886056
  19      0.15836283097272
  20    7.0443052083975e-16
  21     -0.01200377169626
  22     -0.43990994698095
  23        0.735133129009
  24     -0.39390662872837
  25    -0.085922521057145
  26    -7.0328892894063e-16
  27       2.1069865137837
  28     -0.38478694981341
  29    5.4828764205744e-16
  30     -0.17151203381185
  31     -0.07354301387752
  32     0.012003771696341
  33      0.43990994698326
  34     -0.73513312902189
  35     -0.39390662872878
  36    -0.085922521055259
  37    -1.367001827486e-16
  38       2.1069865137866
  39     -0.38478694983024
  40    -4.3443081028687e-16
  41      0.17151203381831
  42      0.07354301388358
  43    -0.0023349533194909
  44      0.37448233998155
  45      0.16520462107833
  46     -0.50128956153027
  47    -0.030598991461053
  48    -4.7796328587356e-16
  49       2.6081765885938
  50      0.15836283097371
  51    9.2207542049235e-16
  52    0.00060882667760987
  53      0.79295566984069
  54      -2.8872106132715
  55     -0.10627412779769
  56    -0.055084996061095
  57    1.9626073613943e-16
  58       1.1965665763682
  59      0.70282658270414
  60    -2.8827002958302e-16
  61      0.13506127417208
  62     -0.16214775424557
 Sym= A
 Ene=      1.81298651
 Spin= Alpha
 Occup=    0.00000
   1      0.37229918767418
   2      0.37136537743684
   3     0.014719378368424
   4      0.72958244616584
   5       -3.363395848276
   6     -0.04689227050096
   7    -0.035923815952835
   8    1.3759351119244e-16
   9      -1.3856019623029
  10     0.023246323492933
  11    -1.2181750670781e-15
  12    -0.035591904657058
  13      -1.3457705608965
  14       5.5206609102364
  15     0.063680565639052
  16       0.1572109893606
  17    -2.9388850494562e-15
  18     -0.34432625482285
  19       -1.798784110491
  20    5.0061627042112e-15
  21    0.0070656732470346
  22     -0.03332050358658
  23      -1.3972618114933
  24       0.1782315832321
  25      0.10388704384985
  26    7.1049016115497e-16
  27       1.6431012533424
  28      -2.1670239896028
  29    -3.1012376506823e-15
  30     -0.24232350614672
  31     -0.60816039080415
  32    0.0070656732486051
  33    -0.033320503568945
  34      -1.3972618116878
  35     -0.17823158324074
  36     -0.10388704385461
  37    5.3041269263528e-16
  38      -1.6431012533148
  39        2.167023989667
  40    5.0573016289242e-16
  41      -0.2423235061408
  42     -0.60816039081491
  43    -0.035591904658089
  44      -1.3457705609483
  45       5.5206609104129
  46    -0.063680565632548
  47     -0.15721098936545
  48    5.4523765654504e-16
  49      0.34432625479864
  50       1.7987841105432
  51    -1.1019398517078e-16
  52      0.01471937836915
  53      0.72958244619206
  54       -3.363395848372
  55     0.046892270501097
  56     0.035923815953854
  57    9.7915914696656e-16
  58       1.3856019623479
  59    -0.023246323504121
  60    -1.4255996134804e-15
  61      0.37229918768851
  62      0.37136537744766
 Sym= A
 Ene=     1.844749008
 Spin= Alpha
 Occup=    0.00000
   1      -0.3646421671362
   2     -0.30722267845544
   3    -0.016856902708281
   4      -0.6618432407724
   5       2.3992112132459
   6     0.010722128935484
   7     0.033012231953787
   8    -6.1736062627449e-16
   9       1.1049468670478
  10     -0.31931620589484
  11    5.9254944266522e-16
  12     0.025780451345851
  13       1.3303600734249
  14      -4.4571802859356
  15      0.18030851296483
  16     -0.12650703772252
  17    3.888683405094e-16
  18     -0.65526571666572
  19       1.3370516939199
  20    -3.9866246417156e-16
  21     -0.03801558118909
  22      -0.3689364471752
  23       4.6152007413832
  24     -0.19723764753594
  25     -0.10917833137457
  26    -2.6279908202267e-16
  27      0.52209411153899
  28       1.5601179407823
  29    7.1968228347466e-17
  30      -0.1512638734766
  31      0.28886111390437
  32     0.038015581188773
  33      0.36893644717619
  34       -4.615200741327
  35      -0.1972376475285
  36     -0.10917833137075
  37    1.0487522796421e-15
  38      0.52209411160146
  39        1.560117940699
  40    -7.6125149921429e-16
  41      0.15126387348512
  42     -0.28886111388075
  43    -0.025780451344512
  44      -1.3303600733714
  45       4.4571802857213
  46      0.18030851296575
  47     -0.12650703771627
  48    -3.3473169144888e-16
  49     -0.65526571667526
  50       1.3370516938497
  51    4.4381178365014e-16
  52     0.016856902707719
  53       0.6618432407437
  54      -2.3992112131164
  55      0.01072212893348
  56     0.033012231951931
  57    2.2180139069714e-16
  58       1.1049468669945
  59      -0.3193162058918
  60    -3.0754497339692e-16
  61      0.36464216712134
  62      0.30722267844033
