[Molden Format]
made by pyscf v[2.9.0]
[Atoms] (AU)
H   1   1    -5.23879324882549    -2.08616882439197     0.00000000000000
N   2   7    -5.43454052943856    -0.10999528853256     0.00000000000000
N   3   7    -3.32931381708035     0.96100699256469     0.00000000000000
C   4   6    -1.14187645939906    -0.55479146482818     0.00000000000000
H   5   1    -1.33192432602045    -2.61430003305479     0.00000000000000
C   6   6     1.14187645939906     0.55479146482818     0.00000000000000
H   7   1     1.33192432602045     2.61430003305479     0.00000000000000
N   8   7     3.32931381708035    -0.96100699256469     0.00000000000000
N   9   7     5.43454052943856     0.10999528853256     0.00000000000000
H   10   1     5.23879324882549     2.08616882439197     0.00000000000000
[GTO]
1 0
 s    3 1.00
             18.731137    0.03349459952309
             2.8253937    0.23472694665786
             0.6401217    0.81375731841339
 s    1 1.00
             0.1612778                   1

2 0
 s    6 1.00
              4173.511  0.0018347994430301
              627.4579   0.013994995751693
              142.9021   0.068586979179805
              40.23433    0.23224092950117
              12.82021    0.46906985760962
              4.390437    0.36045489058067
 s    3 1.00
             11.626358   -0.11496102288211
               2.71628   -0.16911803366165
              0.772218     1.1458522280731
 s    1 1.00
             0.2120313                   1
 p    3 1.00
             11.626358   0.067580023248036
               2.71628    0.32390711142648
              0.772218    0.74089525487354
 p    1 1.00
             0.2120313                   1

3 0
 s    6 1.00
              4173.511  0.0018347994430301
              627.4579   0.013994995751693
              142.9021   0.068586979179805
              40.23433    0.23224092950117
              12.82021    0.46906985760962
              4.390437    0.36045489058067
 s    3 1.00
             11.626358   -0.11496102288211
               2.71628   -0.16911803366165
              0.772218     1.1458522280731
 s    1 1.00
             0.2120313                   1
 p    3 1.00
             11.626358   0.067580023248036
               2.71628    0.32390711142648
              0.772218    0.74089525487354
 p    1 1.00
             0.2120313                   1

4 0
 s    6 1.00
             3047.5249  0.0018347001629433
             457.36951    0.01403730124668
             103.94869   0.068842606114048
             29.210155    0.23218442062076
              9.286663    0.46794134155879
              3.163927    0.36231203217765
 s    3 1.00
             7.8682724   -0.11933240861517
             1.8812885   -0.16085421161283
             0.5442493     1.1434564825515
 s    1 1.00
             0.1687144                   1
 p    3 1.00
             7.8682724   0.068999095584993
             1.8812885    0.31642397975315
             0.5442493    0.74430825237435
 p    1 1.00
             0.1687144                   1

5 0
 s    3 1.00
             18.731137    0.03349459952309
             2.8253937    0.23472694665786
             0.6401217    0.81375731841339
 s    1 1.00
             0.1612778                   1

6 0
 s    6 1.00
             3047.5249  0.0018347001629433
             457.36951    0.01403730124668
             103.94869   0.068842606114048
             29.210155    0.23218442062076
              9.286663    0.46794134155879
              3.163927    0.36231203217765
 s    3 1.00
             7.8682724   -0.11933240861517
             1.8812885   -0.16085421161283
             0.5442493     1.1434564825515
 s    1 1.00
             0.1687144                   1
 p    3 1.00
             7.8682724   0.068999095584993
             1.8812885    0.31642397975315
             0.5442493    0.74430825237435
 p    1 1.00
             0.1687144                   1

7 0
 s    3 1.00
             18.731137    0.03349459952309
             2.8253937    0.23472694665786
             0.6401217    0.81375731841339
 s    1 1.00
             0.1612778                   1

8 0
 s    6 1.00
              4173.511  0.0018347994430301
              627.4579   0.013994995751693
              142.9021   0.068586979179805
              40.23433    0.23224092950117
              12.82021    0.46906985760962
              4.390437    0.36045489058067
 s    3 1.00
             11.626358   -0.11496102288211
               2.71628   -0.16911803366165
              0.772218     1.1458522280731
 s    1 1.00
             0.2120313                   1
 p    3 1.00
             11.626358   0.067580023248036
               2.71628    0.32390711142648
              0.772218    0.74089525487354
 p    1 1.00
             0.2120313                   1

9 0
 s    6 1.00
              4173.511  0.0018347994430301
              627.4579   0.013994995751693
              142.9021   0.068586979179805
              40.23433    0.23224092950117
              12.82021    0.46906985760962
              4.390437    0.36045489058067
 s    3 1.00
             11.626358   -0.11496102288211
               2.71628   -0.16911803366165
              0.772218     1.1458522280731
 s    1 1.00
             0.2120313                   1
 p    3 1.00
             11.626358   0.067580023248036
               2.71628    0.32390711142648
              0.772218    0.74089525487354
 p    1 1.00
             0.2120313                   1

10 0
 s    3 1.00
             18.731137    0.03349459952309
             2.8253937    0.23472694665786
             0.6401217    0.81375731841339
 s    1 1.00
             0.1612778                   1

[5d]
[7f]
[9g]

[MO]
 Sym= A
 Ene=    -15.65273049
 Spin= Alpha
 Occup=    2.00000
   1    0.00028222633511351
   2    0.00051751749348583
   3    -0.023949392474426
   4    4.4144827360261e-05
   5    -0.0054736488229459
   6    9.5620272405012e-07
   7    0.00010190168444002
   8    7.1046371083106e-17
   9    -0.0023757987238328
  10    -0.00030703114623276
  11    -9.9591977376488e-17
  12     -0.70399406002922
  13    -0.017084404544471
  14     0.014315615255399
  15    0.00042636255160746
  16    0.0021255608097688
  17    -5.3761146890441e-17
  18    -0.00046212797377295
  19    -0.0048579825560518
  20    1.1583243419282e-16
  21    -3.7295815201162e-05
  22    0.00026973638657788
  23    -0.0050812006836237
  24    2.2041200471366e-05
  25    0.00016239169315472
  26    7.8379198113944e-17
  27      0.00442895902705
  28    -0.0033020151302079
  29    -1.1299756503604e-16
  30    9.8242825795863e-06
  31    -0.00058851841223707
  32    -3.7295811521169e-05
  33    0.00026973631013167
  34    -0.0050811995547182
  35    -2.2041199329449e-05
  36    -0.0001623916870122
  37    2.386088095317e-17
  38    -0.0044289585830434
  39    0.0033020148905295
  40    2.0761481987865e-18
  41    9.8242300163991e-06
  42    -0.00058851845559327
  43     -0.70399392256001
  44    -0.017084401233804
  45     0.014315612934003
  46    -0.0004263625088224
  47    -0.0021255604105886
  48    -1.5679230330217e-17
  49    0.00046212813592685
  50    0.0048579818175896
  51    2.0845208050959e-17
  52    -0.023949387794496
  53    4.4144834079593e-05
  54    -0.0054736480955368
  55    -9.5618786774376e-07
  56    -0.00010190165987986
  57    -8.0954188585014e-18
  58    0.0023757983918293
  59      0.00030703116213
  60    1.2843128744008e-18
  61    0.00028222628673828
  62    0.00051751741619244
 Sym= A
 Ene=    -15.65272616
 Spin= Alpha
 Occup=    2.00000
   1    -0.00024771583435109
   2    -0.00039585729765442
   3     0.023948764846221
   4    3.4021388481057e-05
   5    0.0037252348671353
   6    -7.6138120337727e-05
   7    -0.0001257641677595
   8    5.1835334059024e-17
   9    0.0017002239193562
  10    -8.1394753607992e-05
  11    -1.1088513551853e-16
  12      0.70397638321061
  13     0.016953827446915
  14    -0.011887829432716
  15    -0.00021917157578881
  16    -0.002044184194265
  17    -1.3919005350789e-16
  18    -0.00083025527258508
  19    0.0037816420672716
  20    1.7054693029772e-16
  21    1.8799715051051e-05
  22    -0.00039146258070353
  23    0.0057809420873898
  24    -5.8484321407211e-06
  25    -3.1450961994741e-05
  26    -1.3296394524024e-16
  27    -0.0022737793738669
  28    0.0012273184656267
  29    1.036019424588e-16
  30    -0.00026917895722935
  31    -0.00022203065029518
  32    -1.8799722331869e-05
  33    0.00039146263338919
  34    -0.0057809430796646
  35    -5.8484364380673e-06
  36    -3.1450993706356e-05
  37    -1.8451142825053e-17
  38    -0.0022737802387708
  39    0.0012273191104289
  40    -1.6169564724948e-17
  41    0.00026917895915106
  42    0.00022203053538372
  43     -0.70397652068264
  44    -0.016953830783052
  45     0.011887832228119
  46    -0.00021917165905183
  47    -0.0020441846093284
  48    1.5218486512583e-17
  49    -0.00083025518237199
  50    0.0037816430158961
  51    -1.638819244639e-17
  52     -0.02394876954411
  53    -3.4021380346612e-05
  54    -0.0037252359357513
  55    -7.6138120464136e-05
  56    -0.0001257641876802
  57    8.3469344751166e-18
  58    0.0017002243832046
  59    -8.1394693629003e-05
  60    -4.1675120074335e-18
  61    0.00024771588945611
  62    0.00039585739865654
 Sym= A
 Ene=    -15.63601449
 Spin= Alpha
 Occup=    2.00000
   1    0.00022658206061175
   2    0.0017666689694758
   3      0.70394726021451
   4     0.016293935139027
   5    -0.0090494403614106
   6    0.0020589765112219
   7    -0.00068512386578064
   8    -2.5935504498925e-16
   9    -0.0032246954891869
  10    0.00064254504250438
  11    3.1726076676999e-16
  12    -0.024053067099281
  13    -0.0010171277811439
  14    0.0041128964598624
  15    0.00028808183624846
  16     0.000195148579842
  17    -4.2414662509866e-17
  18    -0.0013624705339886
  19    -0.0010277076613448
  20    -1.0452303510217e-18
  21    6.9634287613375e-06
  22    -4.5559563844658e-05
  23    -0.0032296844769548
  24    0.00019250980242474
  25    7.5430014093432e-05
  26    -6.1252536037382e-18
  27    -0.0026392408193493
  28    -0.0016095615234106
  29    -4.3531259515823e-17
  30    -5.0664373293917e-05
  31    -0.00081138037965137
  32    -6.9634523290506e-06
  33    4.5559352875892e-05
  34    0.0032296850499058
  35    0.00019250963514437
  36    7.5429991509891e-05
  37    -2.5256054987103e-17
  38    -0.0026392404308838
  39    -0.0016095611083236
  40    5.9213886192664e-17
  41    5.0664278379578e-05
  42    0.00081138002293176
  43     0.024053051395301
  44    0.0010171271298855
  45    -0.0041128941384771
  46    0.00028808167995485
  47    0.00019514847548585
  48    2.4514919184837e-17
  49    -0.0013624698137177
  50    -0.0010277071066294
  51    -4.0715596481685e-17
  52     -0.70394680081982
  53     -0.01629392459578
  54    0.0090494349117157
  55    0.0020589751773464
  56    -0.00068512342259683
  57    6.9870231023962e-18
  58    -0.0032246936633939
  59    0.00064254458925024
  60    -8.2874748583387e-19
  61    -0.00022658195333715
  62    -0.0017666677515485
 Sym= A
 Ene=    -15.63601067
 Spin= Alpha
 Occup=    2.00000
   1    -0.00016437287571218
   2    -0.0018662377775701
   3     -0.70393501636303
   4    -0.016155535408718
   5    0.0083505667853585
   6    -0.0020439219052705
   7    0.00067908985703958
   8    -3.4023478075428e-17
   9    0.0027976566130085
  10    -0.00069452719866145
  11    -1.0864852685404e-17
  12     0.024058262674232
  13    0.00099779958420872
  14    -0.0035569305209921
  15    -0.000239492067915
  16    -0.00015989135433328
  17    -4.2154110437559e-17
  18    0.0011036697817431
  19    0.00084994101360452
  20    3.7285712263741e-17
  21    3.6115633683807e-05
  22    0.00032327122871923
  23    -0.00087799545436926
  24    -0.00025632299294165
  25    -3.4603252091529e-05
  26    -1.9385656151375e-17
  27    0.00059530087673385
  28    0.00063600381554067
  29    3.4234439947093e-17
  30    0.00014543783722537
  31    0.00054659800993966
  32    3.6115629134032e-05
  33    0.00032327125844722
  34    -0.00087799334654228
  35    0.00025632311857247
  36    3.4603301318318e-05
  37    2.807484325949e-17
  38    -0.00059530259904121
  39    -0.00063600486597138
  40    -5.6545543312896e-17
  41    0.00014543787028162
  42    0.00054659853944551
  43      0.02405827839262
  44    0.00099780024849951
  45    -0.0035569332054303
  46    0.00023949225593081
  47    0.00015989148175127
  48    -2.5113987312965e-17
  49    -0.0011036706708891
  50    -0.00084994168439832
  51    4.1616018249783e-17
  52     -0.70393547576479
  53    -0.016155546042299
  54    0.0083505726912132
  55    0.0020439232489866
  56    -0.00067909030414955
  57    -9.8892751052945e-18
  58    -0.0027976587175204
  59    0.00069452761798918
  60    3.4134141050219e-18
  61    -0.0001643730235858
  62    -0.0018662389305272
 Sym= A
 Ene=    -11.31274675
 Spin= Alpha
 Occup=    2.00000
   1    9.5856255938089e-05
   2    0.00020846120080608
   3    1.7291579006816e-05
   4    0.00021522760339575
   5    -0.0012049527481042
   6    -1.4546841847298e-05
   7    -2.5720517833795e-05
   8    4.2012432428975e-17
   9    -0.0005433235333588
  10    0.0001392423366367
  11    -7.6550847207405e-17
  12    0.00011625060691208
  13    8.0489245452684e-05
  14    -0.00032034702406042
  15    9.1216544481012e-05
  16    2.2200398842368e-05
  17    -8.9154816612375e-17
  18    -0.00075014212476708
  19    -0.00045867751178735
  20    1.632630283751e-16
  21     -0.70416200954602
  22    -0.016900553884308
  23    0.0060270789192568
  24    7.6964537287735e-05
  25    -0.00027734142817692
  26    9.6762671796252e-17
  27    -0.0001370774235458
  28    -6.8529131448611e-05
  29    -1.8258180212163e-16
  30    0.00025640153251529
  31    -0.0017162361531124
  32     -0.70416200893535
  33    -0.016900553868447
  34    0.0060270789051857
  35    -7.6964537622742e-05
  36    0.00027734142769154
  37    -2.3818833013079e-17
  38    0.00013707742703552
  39    6.8529133340832e-05
  40    9.8377020434255e-17
  41    0.00025640153247755
  42    -0.0017162361518138
  43    0.00011625060680218
  44    8.0489245360173e-05
  45    -0.0003203470225885
  46    -9.1216544484776e-05
  47    -2.2200398847989e-05
  48    2.3047873787884e-17
  49    0.0007501421245627
  50    0.00045867751177268
  51    4.0001073591214e-18
  52    1.729157900706e-05
  53    0.00021522760332706
  54    -0.0012049527481156
  55    1.4546841872733e-05
  56    2.5720517818414e-05
  57    1.4352055160403e-16
  58    0.00054332353348119
  59    -0.00013924233635802
  60    -1.6056251672965e-16
  61    9.5856255896958e-05
  62    0.00020846120044822
 Sym= A
 Ene=    -11.31140265
 Spin= Alpha
 Occup=    2.00000
   1    4.5082913356054e-05
   2    0.00041491284246555
   3    -1.9056120848807e-06
   4    7.7265854799878e-05
   5    4.6889807560024e-05
   6    3.1351168171732e-05
   7    -1.7909274151626e-05
   8    -2.9347730149096e-17
   9    0.00015626655910608
  10    0.00032888202583233
  11    2.2701600992415e-17
  12    0.00012810816729673
  13    0.0001107684814316
  14    -0.0017247076100878
  15    -9.8121506696355e-06
  16    -6.1631333978103e-06
  17    -3.1552124759445e-17
  18    -0.00020881689134661
  19    2.8070442257814e-06
  20    4.1113779153085e-17
  21     -0.70452460624909
  22    -0.018317674616181
  23     0.016233011510707
  24    -0.00041947125448074
  25    -0.00054178295806726
  26    1.2033913411146e-17
  27    0.0040248860661392
  28    0.0021465159204169
  29    -1.0205291492176e-17
  30    4.5567585257467e-05
  31    -0.0015193481206802
  32      0.70452460685945
  33     0.018317674630845
  34    -0.016233011515943
  35    -0.00041947125443675
  36    -0.00054178295828479
  37    3.1925115922524e-17
  38    0.0040248860660632
  39    0.0021465159203056
  40    -4.3013500047193e-17
  41    -4.5567585479683e-05
  42    0.0015193481221936
  43    -0.00012810816739226
  44    -0.00011076848149709
  45    0.0017247076103287
  46    -9.8121505905129e-06
  47    -6.1631333760042e-06
  48    -2.209819039555e-17
  49    -0.00020881689200778
  50    2.8070438193319e-06
  51    -1.7266039478485e-17
  52    1.9056120650756e-06
  53    -7.7265854987604e-05
  54    -4.6889806497315e-05
  55    3.135116815883e-05
  56    -1.7909274174441e-05
  57    -1.6712934711353e-16
  58    0.00015626655863127
  59    0.00032888202594754
  60    1.8621395865623e-16
  61    -4.5082913437872e-05
  62    -0.00041491284265195
 Sym= A
 Ene=    -1.407659379
 Spin= Alpha
 Occup=    2.00000
   1    -0.045325355846933
   2    0.0070659911700385
   3     0.096373034826785
   4     -0.21357817490846
   5     -0.13796051551108
   6     -0.11749039762607
   7    -0.018351334876427
   8    2.331120004839e-16
   9    -0.019157689689879
  10     0.010020365800696
  11    -5.4842179906028e-16
  12      0.10980923388823
  13     -0.23513788196561
  14     -0.21897081328133
  15     0.066908810697784
  16     0.091335861527797
  17    -2.9694024040845e-16
  18    -0.011270621405055
  19      0.04806984902111
  20    6.5042743003235e-16
  21     0.046771157754339
  22    -0.097187065686117
  23    -0.00044925211675307
  24     0.028225043998787
  25    -0.028628617328205
  26    2.7915127519084e-16
  27    -0.030346052790053
  28     0.034990721142625
  29    -3.6972611333244e-16
  30    -0.015593205156955
  31    0.0075171011598793
  32     0.046771157746877
  33    -0.097187065669805
  34    -0.00044925213096048
  35    -0.028225043984598
  36     0.028628617322713
  37    8.5057878273816e-17
  38     0.030346052789407
  39    -0.034990721134987
  40    -7.6691163483063e-17
  41    -0.015593205154255
  42    0.0075171011592521
  43      0.10980923385986
  44     -0.23513788190479
  45     -0.21897081322807
  46    -0.066908810678554
  47    -0.091335861503869
  48    -5.4268309067504e-17
  49     0.011270621397811
  50    -0.048069849010969
  51    -3.3210021174933e-17
  52     0.096373034800977
  53     -0.21357817485146
  54     -0.13796051546907
  55      0.11749039759483
  56     0.018351334871704
  57    -3.3528649771535e-17
  58     0.019157689682976
  59    -0.010020365799179
  60    1.171146500892e-16
  61    -0.045325355834776
  62    0.0070659911676588
 Sym= A
 Ene=    -1.401928925
 Spin= Alpha
 Occup=    2.00000
   1    -0.047300290538592
   2    0.0089345786463521
   3      0.10007407905764
   4     -0.22140524282163
   5     -0.16089747660948
   6     -0.12186612205346
   7    -0.018973542083334
   8    2.6174300033149e-16
   9    -0.025939603899185
  10    0.0061919280121251
  11    -3.8468343497539e-16
  12       0.1101846842734
  13     -0.23636149096967
  14     -0.20607638514299
  15     0.076298990787299
  16     0.092874057689588
  17    -3.0912613609296e-16
  18    -0.026411093720128
  19     0.039246177467683
  20    6.3954654252325e-16
  21     0.029299965169481
  22    -0.062725023256145
  23     0.048786923451817
  24     0.055122272573622
  25    -0.020800543294783
  26    1.2274273379168e-16
  27    -0.0027944518917737
  28     0.028152343571106
  29    -5.9866676887693e-16
  30    -0.010542251294208
  31    0.0024531222341895
  32    -0.029299965181813
  33     0.062725023281513
  34    -0.048786923450445
  35     0.055122272580697
  36    -0.020800543302174
  37    1.2228494260399e-16
  38    -0.0027944518988519
  39     0.028152343579478
  40    1.6439948874798e-16
  41     0.010542251298345
  42    -0.0024531222359917
  43     -0.11018468430166
  44      0.23636149103029
  45      0.20607638519868
  46      0.07629899080474
  47      0.09287405771307
  48    -6.8667650716366e-17
  49    -0.026411093722702
  50     0.039246177479804
  51    5.4966493821985e-17
  52     -0.10007407908231
  53      0.22140524287642
  54      0.16089747664435
  55     -0.12186612208379
  56    -0.018973542088227
  57    -2.0598987026875e-17
  58    -0.025939603903889
  59    0.0061919280147234
  60    2.7117008538956e-18
  61     0.047300290550236
  62    -0.0089345786481385
 Sym= A
 Ene=    -1.139568397
 Spin= Alpha
 Occup=    2.00000
   1     0.043002644139027
   2    -0.0064800755857884
   3    -0.068066071855849
   4      0.15105737287511
   5      0.17154190307751
   6     0.042953306334138
   7    -0.00056567526380008
   8     6.38562838452e-17
   9     0.028668804468319
  10    -0.013502833818524
  11    -4.4325423507307e-16
  12     0.018079432752244
  13    -0.031902888020654
  14    -0.087314655812097
  15     -0.14989219259295
  16    0.0031262356051315
  17    -7.9030793880098e-18
  18    -0.032338908136152
  19      0.01885665954369
  20    7.3721691329133e-16
  21      0.13687474657203
  22     -0.28539746964146
  23     -0.16833998507086
  24    -0.081850794097889
  25    -0.068562918830921
  26    4.2304904428704e-16
  27    -0.014762671894694
  28     0.021884217178155
  29    -3.6723721184234e-16
  30    -0.061668643817478
  31    0.0058476885738092
  32      0.13687474657132
  33     -0.28539746963972
  34     -0.16833998506983
  35     0.081850794099163
  36     0.068562918829683
  37    -5.4348125795157e-17
  38     0.014762671895269
  39    -0.021884217178367
  40    9.2024596418563e-17
  41     -0.06166864381733
  42    0.0058476885738348
  43     0.018079432751552
  44    -0.031902888018782
  45    -0.087314655811555
  46      0.14989219259132
  47    -0.0031262356047185
  48    7.7225797907536e-17
  49     0.032338908135538
  50    -0.018856659543828
  51    -2.390634398695e-16
  52    -0.068066071855285
  53      0.15105737287381
  54      0.17154190307637
  55    -0.042953306334407
  56    0.00056567526337964
  57    -1.05998450019e-16
  58    -0.028668804468428
  59     0.013502833818213
  60    1.3263972437847e-16
  61     0.043002644138447
  62    -0.0064800755857795
 Sym= A
 Ene=    -1.004841107
 Spin= Alpha
 Occup=    2.00000
   1    -0.087517536618771
   2    -0.0051946593059435
   3     0.094083620087287
   4     -0.20842558256874
   5     -0.27974565634236
   6    -0.0028379781428125
   7     0.043222723929283
   8    -2.0821507631274e-16
   9    -0.031508293315945
  10     0.026886447290638
  11    -2.3486073098382e-18
  12    -0.071161570144365
  13      0.14872892979581
  14      0.24820087113784
  15      0.18564681971665
  16    -0.030056805655641
  17    -1.3931319317353e-16
  18     0.049668181477665
  19    -0.040687725358379
  20    -2.4455344541157e-16
  21    -0.074153409829005
  22      0.15582328277072
  23     0.097659987779011
  24     -0.13182662209217
  25     0.061930203183891
  26    -4.2645170755905e-16
  27    -0.0096273638408312
  28    -0.0052888068627503
  29    -2.8902436724118e-16
  30     0.035329148586739
  31    -0.0028028376525134
  32     0.074153409830645
  33     -0.15582328277386
  34    -0.097659987782055
  35     -0.13182662208943
  36     0.061930203183936
  37    -1.4989749276785e-16
  38    -0.0096273638410035
  39    -0.0052888068624737
  40    6.0928194891681e-17
  41     -0.03532914858778
  42     0.002802837652244
  43     0.071161570143746
  44     -0.14872892979399
  45     -0.24820087113673
  46      0.18564681971693
  47    -0.030056805655415
  48    -3.6296985026997e-17
  49     0.049668181477047
  50    -0.040687725358397
  51    -1.6206050744799e-16
  52     -0.09408362008723
  53      0.20842558256848
  54       0.2797456563425
  55    -0.0028379781440316
  56     0.043222723928021
  57    2.6890027982212e-17
  58    -0.031508293316589
  59     0.026886447290021
  60    8.2670772243027e-17
  61     0.087517536618012
  62    0.0051946593059262
 Sym= A
 Ene=   -0.8845404159
 Spin= Alpha
 Occup=    2.00000
   1      0.14619084130657
   2     0.043019375854188
   3     -0.07563890224886
   4      0.15936460225984
   5      0.29307501306458
   6    -0.081395630966488
   7      -0.1638546643411
   8    2.8988474616084e-16
   9     0.019215989322476
  10    -0.057458546717866
  11    2.7388271181968e-17
  12     0.090468787240172
  13     -0.19834151325914
  14     -0.34742103405467
  15    -0.013179745384837
  16    -0.0056083430559935
  17    1.5421572404062e-16
  18    0.0078429073583637
  19     0.041263784156886
  20    2.0728421271983e-16
  21    -0.050259674864095
  22      0.10677325482934
  23      0.13583832855609
  24      0.16309241828251
  25    -0.029593549714824
  26    2.2287665447864e-16
  27    -0.011929955794487
  28    -0.0039941059413187
  29    1.7845235335587e-16
  30     0.053054856723838
  31     0.015056480030836
  32    -0.050259674861999
  33      0.10677325482521
  34      0.13583832855032
  35     -0.16309241828486
  36      0.02959354971415
  37    8.4470611931278e-18
  38     0.011929955792857
  39    0.0039941059411988
  40    -2.2054260033709e-17
  41     0.053054856721668
  42     0.015056480030215
  43     0.090468787239787
  44       -0.198341513258
  45       -0.347421034053
  46     0.013179745388822
  47    0.0056083430543453
  48    -1.2838497350843e-16
  49    -0.0078429073580102
  50    -0.041263784157396
  51    -1.0730671505765e-16
  52    -0.075638902249254
  53      0.15936460226071
  54      0.29307501306562
  55     0.081395630964561
  56      0.16385466433705
  57    4.9338383919417e-17
  58    -0.019215989323181
  59     0.057458546716205
  60    2.1019367391195e-17
  61      0.14619084130459
  62     0.043019375853575
 Sym= A
 Ene=   -0.8385354736
 Spin= Alpha
 Occup=    2.00000
   1       -0.117089402422
   2    -0.047769746199127
   3     0.017193870226951
   4     -0.02724673175451
   5     -0.10087470262852
   6     0.059336512245102
   7      0.18221542526026
   8    -1.0427942586373e-16
   9    -0.0090983451420627
  10     0.061080424675416
  11    1.7598594417063e-16
  12    -0.051284190622658
  13      0.12137246389063
  14      0.17452382089151
  15     -0.11165006725522
  16     0.088306224550917
  17    -3.3196304105688e-17
  18    -0.055910932285822
  19     0.021269039795298
  20    -4.1804061666794e-16
  21     0.077830212804348
  22     -0.16490987451994
  23     -0.10162199891472
  24     0.055376257735949
  25      0.13769796572053
  26    2.9141502815878e-16
  27     0.076977169746438
  28     0.095591165719491
  29    5.4628289160609e-16
  30     -0.14067387903462
  31    -0.046293341530672
  32    -0.077830212805313
  33       0.1649098745221
  34      0.10162199891579
  35     0.055376257730112
  36       0.1376979657207
  37    9.5146914006701e-17
  38       0.0769771697447
  39     0.095591165720342
  40    -2.803951442198e-16
  41      0.14067387903564
  42     0.046293341530966
  43     0.051284190624297
  44     -0.12137246389435
  45     -0.17452382089677
  46     -0.11165006725337
  47     0.088306224549723
  48    -1.9727893352272e-18
  49    -0.055910932286145
  50     0.021269039794281
  51    1.4054716471204e-16
  52    -0.017193870228567
  53     0.027246731757919
  54      0.10087470263479
  55     0.059336512246421
  56      0.18221542526119
  57    -1.3464690594696e-17
  58    -0.0090983451424632
  59     0.061080424675491
  60    -7.5164045567037e-17
  61      0.11708940242376
  62     0.047769746199778
 Sym= A
 Ene=   -0.7465624723
 Spin= Alpha
 Occup=    2.00000
   1     -0.12723192629683
   2    -0.061169078151041
   3     0.019328422398408
   4    -0.029613478205441
   5     -0.10339702717672
   6      0.10774741691314
   7      0.19891517962144
   8    -1.7444995425313e-16
   9     0.019498107869559
  10     0.078822122063503
  11    -2.150497722911e-16
  12    -0.0033822146654217
  13     0.014693101367112
  14     0.025333175362519
  15     -0.20728989866804
  16    -0.0086483409624593
  17    4.3034300983275e-16
  18    -0.075622529971642
  19    -0.0098930711968126
  20    8.3323237358205e-17
  21    -0.025325327877983
  22     0.049536786017655
  23      0.04322829027253
  24     0.068869381414388
  25     -0.23343648969491
  26    1.4431706443608e-16
  27     0.006208926818946
  28    -0.094124090521077
  29    2.9224261694093e-16
  30      0.13933955391638
  31     0.070144747018215
  32     0.025325327876306
  33    -0.049536786014124
  34    -0.043228290268766
  35     0.068869381396917
  36     -0.23343648969547
  37    1.944985326692e-17
  38    0.0062089268149909
  39    -0.094124090522473
  40    -1.3965128936202e-16
  41     -0.13933955391638
  42    -0.070144747018295
  43     0.003382214666387
  44    -0.014693101368729
  45    -0.025333175367166
  46      -0.2072898986545
  47    -0.0086483409687691
  48    -6.7124586971349e-17
  49    -0.075622529965535
  50    -0.0098930712003101
  51    -5.0206772696449e-17
  52    -0.019328422400074
  53      0.02961347820994
  54      0.10339702718039
  55      0.10774741691162
  56      0.19891517960924
  57    4.7859212666845e-17
  58      0.01949810787017
  59     0.078822122058627
  60    1.4125027351076e-16
  61      0.12723192629122
  62     0.061169078148045
 Sym= A
 Ene=   -0.7367062663
 Spin= Alpha
 Occup=    2.00000
   1    -0.096467164405928
   2    -0.054468906591443
   3    -0.027220213972721
   4     0.075521895401374
   5     0.060493724397092
   6    0.0044662840864856
   7      0.20477119694284
   8    1.5950404640933e-16
   9    -0.024545559625199
  10     0.083402157242867
  11    1.2070416811609e-16
  12    0.0038480912661167
  13    -0.00041998824052199
  14    -0.0093591692451156
  15     -0.20557058447759
  16      0.13808966907271
  17    2.9779156619563e-16
  18    -0.085638622827619
  19     0.066264859134455
  20    2.3212120957346e-16
  21    -0.017076293169123
  22     0.038554130028099
  23    0.0054921690067653
  24      0.30489163694752
  25     0.058471269185304
  26    2.5780442901476e-16
  27     0.099205053547063
  28     0.037731180446693
  29    1.6110981094152e-16
  30    -0.031920271989593
  31    -0.011876905405019
  32    -0.017076293169501
  33     0.038554130028906
  34    0.0054921690048869
  35     -0.30489163695178
  36     -0.05847126917297
  37    2.4931007667489e-17
  38     -0.09920505354774
  39    -0.037731180440863
  40    -7.2124028037011e-17
  41    -0.031920271983399
  42    -0.011876905402195
  43    0.0038480912655753
  44    -0.00041998823875594
  45    -0.0093591692415376
  46      0.20557058449043
  47     -0.13808966907237
  48    -1.2635468751489e-16
  49      0.08563862283192
  50    -0.066264859133618
  51    -2.2391344863567e-17
  52    -0.027220213971474
  53     0.075521895399488
  54     0.060493724390259
  55    -0.0044662840938483
  56     -0.20477119695486
  57    -8.0989527325943e-17
  58     0.024545559623835
  59    -0.083402157247637
  60    -3.7747950133615e-17
  61    -0.096467164413782
  62    -0.054468906595377
 Sym= A
 Ene=    -0.648442579
 Spin= Alpha
 Occup=    2.00000
   1    -0.079320932897998
   2    -0.041833197999192
   3     0.014061688601954
   4    -0.022610110637069
   5    -0.068633868674962
   6      0.12897079846544
   7      0.11586411171339
   8    -2.1708471312636e-16
   9     0.056208377565728
  10     0.049920569867384
  11    -2.3898781229678e-16
  12     0.030849716991682
  13    -0.064690881921521
  14    -0.096415240751964
  15     -0.18730551676505
  16     -0.10285728998956
  17    3.100369659556e-16
  18    -0.059805102145786
  19     -0.05563920446304
  20    1.294655014235e-16
  21    -0.019655858918681
  22     0.035947371484858
  23     0.090792903107372
  24    -0.045599365483112
  25     -0.26702056317091
  26    9.1098766457833e-17
  27    -0.0088312000725049
  28     -0.18153047408209
  29    3.4769725513277e-16
  30      0.18349460531709
  31     0.086211442357421
  32    -0.019655858918998
  33      0.03594737148541
  34     0.090792903110652
  35     0.045599365481541
  36      0.26702056317356
  37    1.4594930737944e-17
  38    0.0088312000693533
  39      0.18153047408199
  40    -2.3489795168835e-16
  41      0.18349460531944
  42     0.086211442359652
  43     0.030849716991419
  44    -0.064690881920741
  45    -0.096415240750327
  46      0.18730551676624
  47      0.10285728998698
  48    -2.3833796170514e-17
  49     0.059805102145891
  50     0.055639204461706
  51    1.6053325798872e-16
  52     0.014061688601796
  53    -0.022610110636621
  54    -0.068633868674024
  55     -0.12897079846406
  56     -0.11586411171585
  57    -5.0684030160722e-17
  58    -0.056208377564918
  59    -0.049920569868597
  60    -5.8122394464463e-17
  61    -0.079320932899366
  62     -0.04183319799994
 Sym= A
 Ene=   -0.5617682443
 Spin= Alpha
 Occup=    2.00000
   1    -0.017410354835803
   2     0.013541135084334
   3    -0.041072321364508
   4     0.084329471240545
   5      0.17228632323862
   6     -0.30220875223679
   7     0.093554663944923
   8    8.0234708319108e-16
   9     -0.17182175247981
  10     0.064891444168471
  11    5.0706613968359e-16
  12    -0.018739872014082
  13     0.041330278572531
  14     0.058187143769537
  15     0.095231279550727
  16      0.27020668298722
  17    -1.9376267774846e-17
  18     -0.00607598559601
  19      0.17747052580168
  20    5.6195428139065e-18
  21    -0.029075218315667
  22     0.042665693457816
  23      0.31714763637584
  24     0.015820854317924
  25    -0.054612889854058
  26    -1.7347183105132e-16
  27     0.086688277504961
  28     0.071104994071619
  29    -1.6577869595875e-16
  30     0.072561939599446
  31      0.06741231714518
  32     0.029075218316116
  33    -0.042665693459611
  34     -0.31714763637375
  35     0.015820854328248
  36    -0.054612889842329
  37    -1.5067090578495e-16
  38     0.086688277508719
  39     0.071104994076504
  40    1.3195586105079e-18
  41    -0.072561939590778
  42     -0.06741231713795
  43     0.018739872012891
  44    -0.041330278570115
  45    -0.058187143763779
  46     0.095231279545315
  47      0.27020668297432
  48    6.278856999826e-17
  49    -0.0060759855983334
  50      0.17747052579272
  51    -4.9260137095585e-17
  52      0.04107232136304
  53    -0.084329471237562
  54     -0.17228632323123
  55     -0.30220875222071
  56     0.093554663939755
  57    1.6585998483993e-16
  58     -0.17182175247071
  59     0.064891444164553
  60    1.0721827865186e-16
  61     0.017410354834406
  62    -0.013541135083924
 Sym= A
 Ene=   -0.5360244856
 Spin= Alpha
 Occup=    2.00000
   1    -0.0081854349384831
   2     0.017884022356622
   3    -0.026434327254197
   4     0.050250220205689
   5       0.1329575456034
   6     -0.27531436645213
   7     0.067705403653093
   8    5.6771743111203e-16
   9     -0.15784566640488
  10     0.060384068425149
  11    4.2737147912563e-16
  12    -0.024935456684146
  13     0.049114231533592
  14      0.11591957506257
  15      0.10552231103959
  16      0.24521623078874
  17    7.1483444998126e-17
  18      0.04194357727383
  19      0.17067498605556
  20    -1.3717145670385e-16
  21     0.010412887312114
  22    -0.037055623058283
  23     0.015808507623546
  24     -0.14811603487587
  25     -0.15608928184037
  26    1.9719183729749e-17
  27    -0.051736322622541
  28    -0.050784023981278
  29    2.1031966537669e-16
  30      0.12046535116679
  31      0.11792544764848
  32     0.010412887310317
  33    -0.037055623055812
  34     0.015808507646503
  35      0.14811603487471
  36       0.1560892818426
  37    2.2146894418937e-17
  38     0.051736322615597
  39     0.050784023974913
  40    -2.2815173241693e-17
  41      0.12046535117115
  42      0.11792544765345
  43    -0.024935456685218
  44     0.049114231535913
  45      0.11591957506526
  46      -0.1055223110453
  47     -0.24521623080499
  48    -3.4984724512743e-17
  49     -0.04194357727266
  50     -0.17067498606642
  51    -1.1393855661702e-17
  52    -0.026434327256685
  53      0.05025022021064
  54      0.13295754561376
  55      0.27531436646991
  56    -0.067705403658396
  57    -8.1700471154732e-17
  58      0.15784566641524
  59    -0.060384068428975
  60    -4.7268964652142e-17
  61    -0.0081854349392915
  62     0.017884022357645
 Sym= A
 Ene=   -0.4147288411
 Spin= Alpha
 Occup=    2.00000
   1     -0.13673486622929
   2     -0.15022222616905
   3    -0.048078964017747
   4      0.11665228066839
   5      0.16517238098602
   6     -0.14981675061867
   7      0.19923604793765
   8    6.9893260215888e-16
   9     -0.16725949315038
  10      0.11948652982013
  11     5.51317860687e-16
  12     0.050021084981984
  13     -0.11806752762054
  14     -0.16534482965517
  15     0.041957527351794
  16     -0.28236909260109
  17    2.4251361912718e-16
  18    -0.014336153234325
  19     -0.24431460374165
  20    -2.7385342987589e-17
  21    -0.027956156489428
  22     0.069694795013102
  23     0.093768201717826
  24     -0.11594772530679
  25     0.098403692659491
  26    -2.3241149566069e-16
  27    -0.0090951273322017
  28      0.04640077829721
  29    -2.1779813357765e-17
  30    -0.042454417649621
  31    -0.052144493795007
  32     0.027956156468867
  33    -0.069694794957622
  34    -0.093768201651057
  35     -0.11594772520209
  36     0.098403692592945
  37    -1.0300489176903e-16
  38    -0.0090951272891823
  39     0.046400778270228
  40    -4.0923099975171e-17
  41     0.042454417609566
  42      0.05214449371756
  43    -0.050021084951387
  44      0.11806752754761
  45      0.16534482956284
  46     0.041957527287604
  47     -0.28236909239506
  48    -6.6161630367986e-17
  49    -0.014336153228709
  50     -0.24431460356152
  51    -1.3655484802886e-16
  52     0.048078963980991
  53     -0.11665228057947
  54     -0.16517238086724
  55     -0.14981675047055
  56      0.19923604778762
  57    2.8385249190858e-16
  58     -0.16725949299506
  59      0.11948652972778
  60    3.0911685805814e-16
  61      0.13673486612553
  62      0.15022222605928
 Sym= A
 Ene=   -0.4126429984
 Spin= Alpha
 Occup=    2.00000
   1      0.13237030404813
   2      0.14074079161383
   3     0.046878346521862
   4     -0.11318054135489
   5     -0.15323943938202
   6      0.18782219215535
   7     -0.19102004055675
   8    -6.7363310185351e-16
   9       0.1971799183539
  10      -0.1179754551037
  11    -4.4473842208491e-16
  12    -0.039024374958975
  13     0.092892352201071
  14      0.11858994867154
  15    -0.081807952355005
  16      0.26190024866629
  17    -2.5684178860733e-16
  18    0.0061713307048384
  19      0.22901525314166
  20    -2.0948878998558e-16
  21     0.026322102399351
  22    -0.071013780265566
  23    -0.085887101579827
  24      0.13284753423944
  25    -0.083892353731907
  26    4.1355036828548e-16
  27      0.05484944270976
  28    -0.032844032419737
  29    3.7039516036725e-16
  30     0.050657144232021
  31     0.099805157340848
  32     0.026322102421501
  33    -0.071013780320659
  34    -0.085887101653923
  35     -0.13284753433047
  36     0.083892353808664
  37    1.1967435751352e-16
  38    -0.054849442717635
  39     0.032844032455749
  40    -2.2588410205348e-18
  41      0.05065714426503
  42     0.099805157382196
  43    -0.039024374998274
  44     0.092892352293779
  45      0.11858994880258
  46      0.08180795238844
  47     -0.26190024888725
  48    -8.8684220398515e-17
  49    -0.0061713307153033
  50     -0.22901525333277
  51    -1.2860372592071e-16
  52     0.046878346559783
  53     -0.11318054144666
  54     -0.15323943951391
  55     -0.18782219227321
  56      0.19102004071338
  57    2.3564760882758e-16
  58     -0.19717991848527
  59      0.11797545519803
  60    2.7027456992485e-16
  61      0.13237030415571
  62       0.1407407917326
 Sym= A
 Ene=               0
 Spin= Alpha
 Occup=    1.92400
   1    -1.1269723673648e-16
   2    1.8812907594807e-16
   3    9.9010631672575e-17
   4    -4.1233719894714e-16
   5    5.765289927232e-16
   6    9.8901974060159e-17
   7    -1.619016458042e-16
   8      0.10735942157444
   9     6.34055781725e-16
  10    -6.0118339869829e-18
  11     0.055057073105906
  12    -9.4282400279381e-17
  13    1.8920377095413e-16
  14    8.7390491682381e-16
  15    3.122877754515e-16
  16    -1.8273059763741e-16
  17      0.24153477715613
  18    1.1404138014378e-15
  19    -1.4932717112078e-17
  20      0.15257869525816
  21    -1.1106814393121e-16
  22    -6.8777838590773e-17
  23    2.6900268221919e-15
  24    -1.027455181862e-16
  25    2.1756490993666e-16
  26      0.30617722313985
  27    2.0049423966318e-15
  28    -2.1673856614861e-15
  29      0.17839378033486
  30    -2.7514818832887e-16
  31    -2.2409263337723e-15
  32    9.4658469743515e-18
  33    -2.1310790096675e-17
  34    -2.6529508737293e-16
  35    1.5789980822771e-17
  36    -2.2446089390292e-16
  37      0.30617722315285
  38    1.0137349923127e-15
  39    3.1224694146198e-15
  40      0.17839378034182
  41    -2.5857082214407e-16
  42    -2.3987643028786e-15
  43    4.2541722507837e-17
  44    9.6714751063249e-17
  45    4.5531999250517e-17
  46    2.8389301489408e-17
  47    9.7566073092672e-17
  48      0.24153477718819
  49    -3.1925813318658e-16
  50    -4.9680339806333e-16
  51      0.15257869528229
  52    -1.9944486980162e-17
  53    1.0371681028162e-16
  54    3.7569113627775e-16
  55    -1.2770685658981e-17
  56    -4.4297318688684e-17
  57      0.10735942159878
  58    8.0126400281146e-17
  59    7.9638505635407e-17
  60     0.055057073121452
  61    5.6767508565249e-18
  62    -2.5074645262564e-16
 Sym= A
 Ene=               0
 Spin= Alpha
 Occup=    1.89037
   1    -6.6013873747621e-17
   2    -1.9041072530848e-16
   3    -1.906859757355e-16
   4    5.5447602881108e-16
   5    1.3016245419902e-15
   6    -4.1094294084325e-16
   7    4.0307168498758e-16
   8      -0.2617431365859
   9    2.1570707910686e-17
  10    6.6119447943924e-16
  11     -0.16439908463235
  12    1.8188446125436e-16
  13    -1.3801657199829e-16
  14    -2.3837204157517e-15
  15    -2.0110262297925e-16
  16    8.2116736346825e-17
  17     -0.31251046234871
  18    3.1188100085967e-16
  19    8.1284901576761e-16
  20     -0.20549213593029
  21    2.3919652180761e-17
  22    2.7360775962942e-16
  23    -2.5084895381453e-15
  24    -1.4549706282098e-16
  25    1.0790656274274e-16
  26      -0.1064374950677
  27    -3.1882159609942e-15
  28    -7.4111038138558e-16
  29    -0.092968090525209
  30    2.1984356122281e-17
  31    -1.5498434193908e-16
  32    -5.6796534551895e-17
  33    -2.8704185443074e-16
  34    3.6441824874355e-15
  35    -1.3620146003517e-16
  36    4.2678374109753e-17
  37       0.1064374950526
  38    -1.990721266175e-15
  39    -1.2140590031476e-15
  40     0.092968090520984
  41    -4.8851889826782e-17
  42    -2.4895001111968e-17
  43    6.7542409613888e-18
  44    -1.151496474581e-16
  45    -2.5109998223918e-17
  46    7.4769887048032e-17
  47    7.3077201744954e-17
  48      0.31251046231117
  49    -1.3804240853823e-16
  50    2.4366170507296e-16
  51      0.20549213590707
  52    -5.1645831211131e-17
  53    1.1218526402993e-17
  54    4.4632827173701e-16
  55    1.5924612324812e-16
  56    -2.7158194625452e-17
  57      0.26174313655172
  58    -7.1127001451483e-17
  59    -1.0577576479995e-17
  60      0.16439908460938
  61    -1.3856704827727e-16
  62    -7.4813846877704e-17
 Sym= A
 Ene=               0
 Spin= Alpha
 Occup=    1.69308
   1    -2.2056084420383e-16
   2    -1.190826854882e-16
   3    -1.6999894337632e-16
   4    4.4625441939204e-16
   5    1.5949149802128e-15
   6    -6.1342309113646e-16
   7    4.4970879362073e-16
   8      -0.3418075957787
   9    1.7140300962367e-16
  10    7.7661271012803e-16
  11     -0.23769587702169
  12    1.5169950763139e-16
  13    -6.3429836952379e-17
  14    -1.8461268911128e-15
  15    7.2301711620562e-17
  16    -7.147819414709e-17
  17      -0.1683134145592
  18    8.7103156288234e-16
  19    7.7892151391268e-16
  20     -0.11007952111843
  21    -6.3907032502715e-17
  22    5.5419688980152e-16
  23    -1.9279117958911e-15
  24    -4.0194200346682e-16
  25    3.2255565693416e-16
  26      0.25914486329739
  27    -2.6311439221579e-15
  28    -2.708181704058e-15
  29      0.16975529541196
  30    -1.7149907535995e-16
  31    -1.7544786192654e-15
  32    -1.0691792376969e-17
  33    -4.2676040691537e-16
  34    3.5433274831833e-15
  35    1.0849052137446e-17
  36    5.0597583768726e-17
  37      0.25914486328899
  38    -2.9608929240258e-15
  39    9.7544638377086e-16
  40      0.16975529539802
  41    -1.9215825606864e-16
  42    -1.4506613817457e-15
  43    -5.2646111346969e-17
  44    -3.1020165271839e-18
  45    7.2532355555398e-16
  46    1.4778559299573e-17
  47     5.29297419792e-17
  48     -0.16831341458015
  49    -1.3099732115592e-15
  50    1.9190971411395e-16
  51      -0.1100795211291
  52    1.7717196418087e-17
  53    -2.1102827331352e-16
  54    7.4633390696679e-16
  55    -1.1551642994036e-16
  56    1.6394424237598e-16
  57     -0.34180759580024
  58    -6.3832761109419e-16
  59    -4.1452496963813e-16
  60     -0.23769587703225
  61    -3.2438113896144e-18
  62    5.2004493910817e-16
 Sym= A
 Ene=               0
 Spin= Alpha
 Occup=    0.30622
   1    2.7509664712968e-16
   2    -1.9887454010337e-16
   3    1.3258097339839e-16
   4    -5.8131425020867e-17
   5    -2.5692776800833e-15
   6    5.5924006372221e-16
   7    -2.4600719314177e-16
   8        0.389292915588
   9    -1.1887340092645e-15
  10    -8.6204359483642e-16
  11      0.29051426425559
  12    -1.0045343208401e-17
  13    -9.2965341796127e-17
  14    1.0483459288208e-15
  15    -2.3196438593998e-16
  16    1.6299231691648e-16
  17     -0.22121909307868
  18    -2.2541220189294e-15
  19    -1.1841881282777e-16
  20     -0.16611490457773
  21    1.4411718162207e-17
  22    -1.0740385171027e-16
  23    -1.5259796595898e-16
  24    7.9954401713837e-17
  25    1.0639402185409e-16
  26     -0.23043403529065
  27    -1.5788983009369e-15
  28    2.5161396020354e-16
  29     -0.26711162765466
  30    1.0789219265261e-17
  31    3.5932187786245e-17
  32    -2.5594244342209e-17
  33    -2.6470538751553e-16
  34    1.6749904589407e-15
  35    -1.4316602031738e-16
  36    9.9155643341527e-17
  37      0.23043403527538
  38    -6.7274776771021e-16
  39    -9.6859641455889e-16
  40      0.26711162764062
  41    9.8911858046559e-17
  42    1.0208260230067e-16
  43    -1.8477222086705e-17
  44    -1.2306396844068e-17
  45    4.8087909699256e-16
  46    1.0597477988915e-16
  47    9.4356288725187e-18
  48      0.22121909310256
  49    6.0113005503871e-16
  50    1.9744491430957e-16
  51      0.16611490461317
  52    5.2011151520179e-17
  53    6.0283642144529e-17
  54    -1.1951108595251e-15
  55    -1.4407562213749e-16
  56    4.370631576866e-17
  57     -0.38929291561035
  58    4.2699455034528e-16
  59    1.1697081905881e-16
  60      -0.2905142642832
  61    1.0495852816907e-16
  62    5.4510206367748e-16
 Sym= A
 Ene=               0
 Spin= Alpha
 Occup=    0.10996
   1    -3.6862134225164e-16
   2    4.6179164451363e-16
   3    -1.2851697844199e-16
   4    -1.0276447322308e-16
   5    3.2021768518607e-15
   6    -4.5470418996057e-16
   7    1.2405062423139e-16
   8     -0.36512831964669
   9    1.7783312271113e-15
  10    1.070839733673e-15
  11     -0.21691899119121
  12    -8.699951827058e-17
  13    5.261413540726e-17
  14    1.0220877835534e-15
  15    3.1490312067219e-16
  16    -2.2769521431928e-17
  17      0.42788874988199
  18    3.9105814514352e-15
  19    -7.3704330348106e-16
  20      0.28308359094226
  21    7.1650204593239e-17
  22    -4.1889686961137e-16
  23    5.2276189164434e-16
  24    3.6740899073252e-16
  25    -1.3784242270191e-16
  26     -0.20319985554884
  27    4.7164422393489e-15
  28    -1.7924090460516e-15
  29     -0.10684735089548
  30    3.0734848188465e-19
  31    -5.2222968231461e-16
  32    6.3485497266417e-17
  33    3.6263024100374e-16
  34    -3.8179459921082e-15
  35    -1.2266731302247e-17
  36    -1.1916306703818e-16
  37      -0.2031998555348
  38    1.3459115886618e-15
  39    3.1072867262001e-15
  40     -0.10684735085275
  41    -9.7793303982453e-17
  42    -9.8141071532179e-16
  43    2.3723734822287e-17
  44    -7.1740571453621e-17
  45    3.5950449573267e-16
  46    5.5755605632309e-17
  47    -2.3615573573493e-16
  48      0.42788874982407
  49    -1.0422990338193e-15
  50    -7.9111977996091e-17
  51      0.28308359091694
  52    -1.7951378911677e-17
  53    -3.3156785485353e-16
  54    1.4749616487233e-15
  55    -1.9713677281995e-16
  56    1.793913155989e-16
  57     -0.36512831959401
  58    -1.9489310675699e-16
  59    3.2898454712577e-17
  60     -0.21691899117272
  61    -5.8976265602691e-17
  62    -8.4345656712513e-16
 Sym= A
 Ene=               0
 Spin= Alpha
 Occup=    0.07637
   1    -2.8066561277972e-16
   2    4.064580924879e-17
   3    -7.8782236518993e-17
   4    -1.9623896923018e-16
   5    2.5771426816258e-15
   6    -2.1142968646018e-16
   7    1.6084565131182e-17
   8     -0.19149018146222
   9    1.5313984123535e-15
  10    4.3055585660127e-16
  11    -0.067022582706981
  12    -4.458393632223e-17
  13    3.2765974546128e-16
  14    -9.7603910155484e-16
  15    2.4602243740665e-16
  16    -3.8745172188767e-16
  17      0.34536474638764
  18    1.9506443925374e-15
  19    1.6111916203935e-16
  20      0.23259374694178
  21    7.0969775587876e-17
  22    -4.9009144175012e-16
  23    1.6952523064842e-15
  24    3.7378628003187e-16
  25    -5.8367617770703e-16
  26     -0.45117870323847
  27    3.1404628463079e-15
  28    9.7823449293389e-16
  29     -0.46121609858534
  30    2.9664194280346e-16
  31    8.3830863985564e-16
  32    7.4345579679957e-17
  33    6.9610171739305e-16
  34    -5.1584506720646e-15
  35    -2.3082657555186e-16
  36    -1.1425260654179e-16
  37       0.4511787032927
  38    1.141059041737e-15
  39    1.8522192309976e-15
  40      0.46121609856303
  41    -1.1617195301596e-16
  42    9.7503453130314e-17
  43    -5.5321416823329e-17
  44    -2.9013623762532e-16
  45    2.5048399993908e-15
  46    -1.8715226999154e-16
  47    -1.2102358921855e-17
  48     -0.34536474643016
  49    8.810957890311e-17
  50    8.3377515174857e-16
  51     -0.23259374695786
  52    -2.5693927531979e-18
  53    1.6576053750396e-17
  54    -6.6877940831547e-16
  55    1.8864811205088e-16
  56    8.3586276639352e-17
  57      0.19149018149442
  58    6.1453653523665e-16
  59    3.6697775894679e-16
  60     0.067022582725211
  61    7.8313686111515e-17
  62    -8.0864392810278e-16
 Sym= A
 Ene=    0.1916940036
 Spin= Alpha
 Occup=    0.00000
   1    -0.026245494762419
   2     -0.81737817748444
   3    -0.030608278721353
   4     0.028084064117221
   5      0.54311863043419
   6    -0.0040809906543483
   7     -0.18204943461441
   8    1.121348841752e-16
   9     0.026626837561797
  10     -0.39707615196556
  11    1.575757041473e-17
  12    -0.019422226053718
  13     0.025571702219356
  14      0.27189861813775
  15     0.057944257052705
  16      0.01653795434811
  17    -4.1526204421744e-17
  18      0.13433762534643
  19     0.065786913139148
  20    -1.1674284825141e-16
  21     -0.03551862651022
  22     0.044009687139905
  23      0.53072522469807
  24     0.078018766970488
  25     -0.16782637570827
  26    8.2687836570569e-17
  27      0.12347546415809
  28     -0.49002122160442
  29    -1.2760738185087e-16
  30    -0.023771440877699
  31     -0.88286744470996
  32     0.035518626510259
  33    -0.044009687140094
  34     -0.53072522469794
  35     0.078018766969994
  36     -0.16782637570552
  37    7.3237986519229e-17
  38      0.12347546415196
  39       -0.490021221591
  40    1.2492715358596e-16
  41     0.023771440878823
  42      0.88286744470189
  43     0.019422226053522
  44    -0.025571702219404
  45     -0.27189861813147
  46     0.057944257051363
  47     0.016537954347366
  48    -5.4256734948485e-17
  49       0.1343376253399
  50     0.065786913137276
  51    -6.7571195199157e-17
  52     0.030608278719973
  53    -0.028084064115499
  54     -0.54311863041059
  55    -0.0040809906551213
  56     -0.18204943460869
  57    2.5976386733715e-17
  58     0.026626837558226
  59     -0.39707615195259
  60    4.0485315718001e-17
  61     0.026245494760834
  62      0.81737817745279
 Sym= A
 Ene=    0.2261722592
 Spin= Alpha
 Occup=    0.00000
   1    -0.043494685567705
   2      -1.1561052106608
   3    -0.051591734606387
   4     0.058060037094876
   5      0.90681679588937
   6     0.029362309951654
   7      -0.2132277373528
   8    6.384342203139e-18
   9      0.15385319315602
  10      -0.4792018661923
  11    -1.1439797712794e-17
  12    -0.0073879042809501
  13    -0.0077020970574694
  14      0.24147583681388
  15     0.048618117267888
  16     0.045615876165209
  17    -3.4243957156169e-17
  18      0.27876670627628
  19     0.097099706013884
  20    2.1820105358017e-17
  21    -0.0003942128553123
  22    -0.023631703821606
  23     0.094049203105082
  24    -0.0026295147823657
  25      -0.1151280266826
  26    9.9108274169405e-17
  27      0.24557284480716
  28     -0.60957332053969
  29    -1.8326058928402e-16
  30       0.0424640358797
  31     -0.43703789769868
  32    -0.00039421285683698
  33    -0.023631703819779
  34     0.094049203129302
  35    0.0026295147801782
  36      0.11512802668829
  37    -2.8239114043333e-16
  38     -0.24557284481119
  39      0.60957332055834
  40    4.0578581509147e-16
  41     0.042464035878107
  42     -0.43703789773646
  43    -0.0073879042815503
  44    -0.0077020970568725
  45      0.24147583682365
  46    -0.048618117268797
  47    -0.045615876165478
  48    6.3145082803865e-17
  49     -0.27876670627913
  50    -0.097099706015243
  51    -9.857543542687e-17
  52    -0.051591734606682
  53     0.058060037094636
  54      0.90681679589591
  55     -0.02936230995123
  56      0.21322773735623
  57    4.0958376371139e-17
  58     -0.15385319315501
  59      0.47920186619949
  60    -9.0995341447953e-17
  61    -0.043494685567468
  62      -1.1561052106717
 Sym= A
 Ene=    0.2808548484
 Spin= Alpha
 Occup=    0.00000
   1    -0.049409352770398
   2     -0.27969693647885
   3    -0.025948569270165
   4     0.058529863847985
   5      0.30830742366931
   6     0.032211220942043
   7    0.0038328933765759
   8    2.268930614978e-16
   9     0.078535639338334
  10    -0.030002251809681
  11    -1.7631677095953e-16
  12    -0.003798326560665
  13     0.010018631519979
  14    -0.0099881389256401
  15      0.10252669040489
  16     -0.12016157419031
  17    -2.691486213927e-16
  18      0.19583152090675
  19     -0.18570262553554
  20    1.1298782833474e-16
  21     0.068335671027471
  22    -0.063932840784376
  23      -1.3770864718142
  24     0.078820127704519
  25      0.16396601571885
  26    2.1842176288233e-16
  27      0.23965211113121
  28      0.87883835194595
  29    1.9188617202938e-16
  30     0.034054090152098
  31       1.6029525893914
  32     0.068335671026033
  33     -0.06393284078214
  34      -1.3770864718015
  35     -0.07882012770246
  36     -0.16396601571575
  37    6.0806785981748e-16
  38     -0.23965211111401
  39     -0.87883835192829
  40    -9.9467883787498e-16
  41     0.034054090149595
  42        1.602952589355
  43    -0.0037983265602589
  44     0.010018631518937
  45    -0.0099881389301514
  46      -0.1025266904023
  47      0.12016157419022
  48    4.0838186590944e-17
  49     -0.19583152090246
  50      0.18570262553182
  51    -7.085343979016e-18
  52    -0.025948569269117
  53     0.058529863846129
  54      0.30830742365518
  55    -0.032211220941386
  56    -0.0038328933795245
  57    -3.0917267999661e-16
  58    -0.078535639335577
  59     0.030002251802738
  60    4.8065550433621e-16
  61    -0.049409352769102
  62     -0.27969693645996
 Sym= A
 Ene=    0.2901202031
 Spin= Alpha
 Occup=    0.00000
   1      0.04546053490318
   2      0.85078567280791
   3      0.04254802408923
   4    -0.070122914696719
   5     -0.56885802294263
   6    -0.025576728994337
   7      0.13028026774026
   8    2.7403206255048e-17
   9     -0.08637256067273
  10      0.33604351230956
  11    -3.2368797288452e-16
  12     0.014444088564867
  13    -0.034174580125195
  14     -0.16287843326382
  15    -0.090971147484295
  16    -0.014170997059255
  17    4.5569061548251e-17
  18    -0.098388321808087
  19      0.11769391899792
  20    3.4922228114148e-16
  21     -0.05328669877587
  22     0.069994231737892
  23      0.53699893064338
  24    -0.041928013140317
  25     -0.13349744126954
  26    -1.6484957312073e-16
  27     -0.52945130871567
  28      -0.6290011208195
  29    -3.3116613982415e-16
  30    -0.077843104901079
  31      -1.3438256563453
  32     0.053286698777655
  33    -0.069994231739741
  34     -0.53699893067938
  35    -0.041928013141991
  36     -0.13349744127299
  37    -3.003473771433e-16
  38     -0.52945130872644
  39     -0.62900112083444
  40    5.7472314128858e-16
  41     0.077843104902002
  42       1.3438256563816
  43      -0.0144440885651
  44     0.034174580125171
  45      0.16287843326822
  46    -0.090971147487526
  47    -0.014170997056546
  48    -9.2343635411666e-17
  49    -0.098388321816934
  50      0.11769391900204
  51    6.7783829271702e-18
  52    -0.042548024090477
  53     0.070122914698717
  54       0.5688580229607
  55    -0.025576728995612
  56      0.13028026774235
  57    -5.2505329357198e-17
  58    -0.086372560676361
  59      0.33604351231589
  60    -3.0129818946527e-17
  61    -0.045460534904658
  62     -0.85078567282769
 Sym= A
 Ene=    0.3494057096
 Spin= Alpha
 Occup=    0.00000
   1    -0.0081475695181301
   2      0.57364961378834
   3      0.04202689915015
   4    -0.044147218726986
   5      -1.0595046073211
   6     -0.10861818598399
   7    0.0020042451731625
   8    -3.3645123768225e-16
   9     -0.59207032427546
  10    -0.0077829473002857
  11    7.999339149659e-16
  12    -0.092705800748864
  13      0.13921788109514
  14       1.7741334683706
  15     0.097566158426468
  16     -0.15355087427442
  17    3.0491137875715e-17
  18    -0.037336999069109
  19     -0.78875819838798
  20    -7.6603798742575e-16
  21     0.036347303384753
  22    -0.062291717316845
  23       0.2946014026137
  24      0.10989426562284
  25    -0.079547692852285
  26    -7.7937910761971e-19
  27       1.5648519213495
  28      0.17095911481878
  29    8.7755709605056e-16
  30    -0.060264786549336
  31      0.16990566801509
  32    -0.036347303384581
  33     0.062291717318786
  34      -0.2946014026226
  35      0.10989426562038
  36    -0.079547692850271
  37    6.5097166424169e-16
  38       1.5648519213371
  39      0.17095911483414
  40    -1.1918923332676e-15
  41     0.060264786550869
  42     -0.16990566802426
  43     0.092705800748093
  44     -0.13921788109388
  45      -1.7741334683483
  46     0.097566158426406
  47     -0.15355087427341
  48    1.3540419163566e-16
  49    -0.037336999071231
  50     -0.78875819838038
  51    1.4084692043579e-16
  52    -0.042026899149867
  53     0.044147218726899
  54       1.0595046073132
  55     -0.10861818598373
  56     0.002004245173925
  57    2.1553650325279e-16
  58     -0.59207032426932
  59    -0.0077829472981995
  60    -1.8051543554453e-16
  61    0.0081475695178656
  62     -0.57364961378693
 Sym= A
 Ene=    0.4740283078
 Spin= Alpha
 Occup=    0.00000
   1    -0.026314122920921
   2      0.62224776515853
   3     0.035674021838877
   4      0.01955855777121
   5     -0.98250620330842
   6    -0.015030207241572
   7     0.012108521222912
   8    -1.7773056111935e-16
   9     -0.66247221867353
  10     0.044062604148471
  11    5.6335618096689e-16
  12    -0.086167930734733
  13     0.086741840484304
  14       2.7170210813357
  15    -0.011655842292761
  16     -0.16608289333204
  17    2.0449278715762e-16
  18      0.58618080973102
  19     -0.97851733550044
  20    -1.1158585192877e-15
  21     0.037715409441151
  22      0.13520575431347
  23      -1.4288224673223
  24      0.12153470143064
  25     -0.14080948647768
  26    -8.9719240325894e-16
  27       1.7864455365139
  28      -1.8462878132215
  29    1.349626226899e-15
  30      0.13016291096541
  31     -0.92199207733886
  32     0.037715409440307
  33      0.13520575431412
  34      -1.4288224672863
  35     -0.12153470143208
  36      0.14080948647582
  37    -1.3720602760277e-15
  38      -1.7864455365477
  39       1.8462878132093
  40    1.2423002160924e-15
  41      0.13016291096384
  42     -0.92199207733572
  43    -0.086167930735246
  44     0.086741840484574
  45       2.7170210813484
  46     0.011655842292377
  47      0.16608289333213
  48    -2.1092024251024e-16
  49     -0.58618080972882
  50        0.978517335508
  51    -1.7048317141384e-16
  52     0.035674021839057
  53     0.019558557771561
  54     -0.98250620331803
  55     0.015030207241629
  56    -0.012108521223127
  57    -1.5935907967176e-17
  58      0.66247221867602
  59    -0.044062604149667
  60    -3.0312133689437e-18
  61    -0.026314122920109
  62       0.6222477651664
 Sym= A
 Ene=    0.5156330683
 Spin= Alpha
 Occup=    0.00000
   1     0.074770286674235
   2       0.3552216234114
   3     -0.02017277215388
   4      0.11029673858852
   5     -0.15747069312255
   6      0.17182437867267
   7     0.044891699798422
   8    -8.419069073966e-16
   9      0.19064190561741
  10     0.045173242719808
  11    9.474733834402e-16
  12     0.038977979610221
  13    -0.066761927252029
  14     -0.35851930794964
  15    -0.066128356688224
  16      0.10459112792287
  17    5.1857626173881e-17
  18     -0.33909082617872
  19     -0.10031833547464
  20    -3.887549635198e-17
  21     -0.13922091594983
  22      0.15362468617197
  23       4.2542379164083
  24     0.097365648954171
  25      0.21123220960257
  26    -1.6770345103357e-15
  27       2.5582730616522
  28       1.5888119511168
  29    1.4924483023799e-15
  30    -0.013583616560984
  31      0.33836036398804
  32      0.13922091595017
  33     -0.15362468616967
  34       -4.254237916424
  35     0.097365648956506
  36      0.21123220960362
  37    -6.5985425135502e-16
  38       2.5582730616287
  39       1.5888119511448
  40    2.4850603745232e-16
  41     0.013583616562913
  42     -0.33836036400466
  43    -0.038977979610547
  44       0.0667619272522
  45      0.35851930796788
  46    -0.066128356689042
  47      0.10459112792306
  48    -4.920686645272e-16
  49     -0.33909082619734
  50     -0.10031833546852
  51    5.3271036700774e-16
  52     0.020172772153696
  53     -0.11029673858711
  54      0.15747069312572
  55      0.17182437867107
  56     0.044891699797116
  57    -5.8394799871459e-17
  58      0.19064190561489
  59     0.045173242712667
  60    -9.055387078973e-17
  61    -0.074770286673662
  62     -0.35522162340241
 Sym= A
 Ene=    0.5800933081
 Spin= Alpha
 Occup=    0.00000
   1    -0.056006833820876
   2     -0.62276928173098
   3     0.052938494200034
   4    -0.094433137465361
   5      -1.4435722981601
   6     -0.15046504475934
   7     -0.19787842971178
   8    -1.0891585585409e-15
   9      -1.1379521515783
  10     -0.93481640020536
  11    1.0962800157091e-15
  12    -0.044083447118097
  13      0.11319040042868
  14      0.65913130063114
  15     -0.23006323275463
  16    -0.047289366160158
  17    -1.0570664751217e-15
  18      -1.7630056234375
  19     -0.26603110814059
  20    1.7111473694052e-15
  21    -0.010187385905031
  22    0.0051107749416965
  23      0.29211267932467
  24      0.09747999422089
  25     0.043596790870116
  26    1.8622330372641e-15
  27     -0.86564063545994
  28       1.5742484326974
  29    -2.8340436224537e-15
  30    -0.028424596249426
  31       1.1583966684903
  32    -0.010187385902845
  33    0.0051107749403768
  34      0.29211267925533
  35    -0.097479994225994
  36    -0.043596790863818
  37    2.1943437235044e-15
  38       0.8656406354708
  39      -1.5742484326618
  40    -1.8350239888137e-15
  41    -0.028424596247751
  42       1.1583966684755
  43    -0.044083447118037
  44      0.11319040043003
  45      0.65913130060674
  46      0.23006323274258
  47     0.047289366162103
  48    1.7051388543044e-16
  49       1.7630056233791
  50      0.26603110813295
  51    2.5691384384744e-16
  52     0.052938494198503
  53    -0.094433137463456
  54      -1.4435722981114
  55      0.15046504475833
  56      0.19787842970673
  57    -2.2659804715262e-16
  58        1.137952151545
  59      0.93481640017687
  60    2.8184490207585e-16
  61    -0.056006833820928
  62     -0.62276928171815
 Sym= A
 Ene=    0.6177771965
 Spin= Alpha
 Occup=    0.00000
   1     0.011833350186253
   2      0.50163854927278
   3    -0.053007628702893
   4     0.089104547257929
   5       1.5239223898804
   6     0.089134365931908
   7      0.17379671798763
   8    7.1634683097701e-16
   9       1.1244991824453
  10      0.94030656606939
  11    -7.6048068059714e-16
  12       0.0134510901333
  13     0.016122970871972
  14     -0.90449194362279
  15      0.37446227836597
  16    -0.024078808300527
  17    6.7049475171511e-19
  18       1.7872667796521
  19      0.25967421848125
  20    3.9396142490823e-16
  21     0.035073918072908
  22     0.033975196417001
  23      -1.3835759603416
  24      0.19838501704997
  25     -0.11805266973997
  26    3.0972313532829e-16
  27      0.10899683112637
  28       -0.838684440075
  29    -8.123221556957e-16
  30     0.049453575696754
  31     -0.41537501515839
  32    -0.035073918073143
  33    -0.033975196416145
  34        1.383575960354
  35      0.19838501704341
  36     -0.11805266974032
  37    -9.8115618853562e-16
  38      0.10899683115933
  39     -0.83868444012357
  40    1.7157543891626e-15
  41    -0.049453575697166
  42      0.41537501519201
  43    -0.013451090134707
  44    -0.016122970867429
  45      0.90449194363695
  46      0.37446227837197
  47    -0.024078808298981
  48    1.9537795416852e-16
  49       1.7872667797056
  50      0.25967421848823
  51    -7.6041409526907e-16
  52      0.05300762870447
  53    -0.089104547261328
  54      -1.5239223899215
  55     0.089134365937769
  56       0.1737967179939
  57    1.6959132526785e-16
  58       1.1244991824782
  59      0.94030656609715
  60    1.1603092161392e-16
  61    -0.011833350187929
  62     -0.50163854929306
 Sym= A
 Ene=     0.716855567
 Spin= Alpha
 Occup=    0.00000
   1    -9.2177355469151e-16
   2    5.0154287158879e-15
   3    -2.6310015253886e-18
   4    1.0080862015777e-16
   5    2.8368981252136e-16
   6    1.0641864555431e-15
   7    2.1692637463827e-15
   8      0.10658802567485
   9    7.4416332339811e-17
  10    5.8215455717921e-16
  11     -0.12972123224916
  12    1.474559874233e-16
  13    -1.7502497821332e-15
  14    6.3363233836008e-15
  15    -2.443059882144e-15
  16    1.8201526331047e-15
  17      0.16433243543299
  18    6.7977346862321e-15
  19    -4.6887003656706e-15
  20     0.074132741378663
  21    -4.9774643901111e-16
  22    -1.263611215231e-14
  23    1.7777112769429e-14
  24    -3.892970311141e-15
  25    -1.5940797372079e-15
  26       0.6993959530835
  27    1.7262465002083e-14
  28    -6.4961339504056e-15
  29     -0.67536362711363
  30    -3.0860679290645e-15
  31    -9.3070514827194e-15
  32    9.2412410070743e-17
  33    -9.5044885728901e-15
  34    -3.4959808049509e-15
  35    1.7833416349173e-15
  36    3.7510990092501e-15
  37       0.6993959531499
  38    -4.9139165105569e-15
  39    6.4042220554807e-15
  40     -0.67536362731702
  41    -1.6454340873154e-15
  42    -5.0740351068395e-15
  43    -1.4044863460757e-16
  44    -3.1488775560364e-16
  45    8.8829555658434e-15
  46    2.4445817152429e-15
  47    1.8328883328925e-15
  48      0.16433243543727
  49    -2.6961153170602e-15
  50    2.8040395089815e-15
  51     0.074132741469131
  52    1.9407507145533e-16
  53    -8.869132250828e-17
  54    -3.0631893402141e-15
  55    -6.4236158326725e-18
  56    -1.1479451277372e-15
  57      0.10658802570601
  58    3.7814301735659e-15
  59    2.7189244712878e-15
  60     -0.12972123231343
  61    -1.3924595723499e-15
  62    1.854096444886e-15
 Sym= A
 Ene=    0.7491628425
 Spin= Alpha
 Occup=    0.00000
   1    0.0045823062990848
   2     0.044782342113223
   3     0.012467129985598
   4     0.060646316961418
   5     -0.59247879004558
   6      0.15379427654662
   7     0.029084097838933
   8    1.3168843351062e-14
   9      -0.4676636179115
  10     -0.31991225228349
  11    -2.0589870803772e-14
  12      0.02668087038949
  13      -0.1537206812646
  14      0.40724924648882
  15     -0.22535589596754
  16    -0.099223152461782
  17    -2.3034522835952e-15
  18     -0.48137492123813
  19    -0.055095608714405
  20    2.4722819121115e-14
  21    -0.036423388688005
  22     -0.60209692536852
  23      0.47507104044291
  24     -0.48336595955077
  25      -0.1629992501638
  26    2.6721699890954e-14
  27      0.55098858619749
  28      0.65834249056301
  29    -6.2635976693362e-14
  30     -0.17963763571348
  31      0.28969984191933
  32    -0.036423388688599
  33     -0.60209692536932
  34      0.47507104045812
  35      0.48336595955418
  36      0.16299925015739
  37    -4.1361709114108e-14
  38     -0.55098858619702
  39     -0.65834249055796
  40    7.597831856599e-14
  41     -0.17963763571919
  42      0.28969984191668
  43     0.026680870389674
  44     -0.15372068126581
  45      0.40724924648571
  46      0.22535589596685
  47     0.099223152457934
  48    -2.5359224521559e-15
  49      0.48137492124901
  50     0.055095608714812
  51    -2.3759923986927e-14
  52      0.01246712998568
  53      0.06064631695923
  54     -0.59247879004757
  55     -0.15379427654261
  56     -0.02908409783746
  57    -1.5170991270919e-14
  58      0.46766361790737
  59      0.31991225228332
  60    2.2189808009696e-14
  61    0.0045823063017663
  62     0.044782342109174
 Sym= A
 Ene=    0.7626388587
 Spin= Alpha
 Occup=    0.00000
   1    2.0783846585566e-14
   2    -1.6091327490218e-14
   3    -5.1284908949702e-16
   4    -8.20728661996e-15
   5    -1.0675878887721e-14
   6    -1.6956210952568e-14
   7    -3.7469235250713e-15
   8     -0.27073555776231
   9    2.9547231267598e-14
  10    8.8415553597821e-15
  11      0.40286839492156
  12    1.6759430961119e-15
  13    -1.6562687458623e-14
  14    2.1989845608353e-15
  15    9.7122311934057e-15
  16     2.55109500256e-14
  17    -0.0079836624982086
  18    -5.193891618552e-14
  19    -1.0780090158831e-14
  20     -0.43972780945413
  21    -3.9406682665995e-15
  22    -4.0632314520989e-14
  23    7.1738655317116e-14
  24    -5.1032021065106e-14
  25    2.806278279692e-14
  26     -0.63116598688014
  27    4.2259465762844e-14
  28    -2.7490025345616e-14
  29       1.2752589750307
  30    -5.7377983686516e-14
  31    -2.019591106974e-15
  32    -7.3224810191647e-16
  33    -1.5028097438629e-14
  34    -3.6451932974009e-14
  35    9.0560423593828e-15
  36    4.1397585621569e-14
  37      0.63116598678136
  38    -2.7658043902844e-14
  39    -1.0005343879379e-13
  40      -1.2752589749424
  41    3.9974633414471e-14
  42    3.8713470036008e-14
  43    1.5832425248503e-15
  44    1.0597590348689e-15
  45    5.4784972125019e-14
  46    3.576452454688e-14
  47    2.6629522257147e-14
  48     0.007983662472963
  49    4.299913481266e-15
  50    7.0925900491975e-15
  51      0.43972780945573
  52    1.5106557642047e-15
  53    2.0564252733386e-14
  54    -6.771343481303e-14
  55    -4.0730189026938e-14
  56    -7.8044691298635e-15
  57      0.27073555773972
  58    9.1209188596083e-14
  59    4.6584396479717e-14
  60     -0.40286839490324
  61    -2.0730565128972e-14
  62    2.2366362571612e-14
 Sym= A
 Ene=    0.8038508574
 Spin= Alpha
 Occup=    0.00000
   1     -0.18852234398435
   2      0.16411502309988
   3    0.0070405412117422
   4      0.13004090425001
   5     -0.25204485187364
   6      0.24056330535947
   7     0.056239974395807
   8    -3.2622159472334e-14
   9     -0.50127585980021
  10     -0.25214350743856
  11    4.9741575601528e-14
  12    0.00084447373861206
  13      0.06045201490097
  14      0.21191988972098
  15     -0.18586368998002
  16     -0.22072149221082
  17    2.2162275792254e-15
  18      0.17850993821582
  19     0.019780017384683
  20    -5.7750793114818e-14
  21     0.013759195405461
  22     0.087868079177962
  23     -0.38072714871976
  24      0.17982392271819
  25      -0.3136958985197
  26    -7.5829232752484e-14
  27    -0.052681442940399
  28      0.58349077876107
  29    1.5648985932769e-13
  30      0.41164998230359
  31      0.18020443480605
  32     -0.01375919540473
  33    -0.087868079177037
  34      0.38072714872783
  35      0.17982392270578
  36      -0.3136958985192
  37    7.8828643243144e-14
  38    -0.052681442919938
  39      0.58349077876668
  40    -1.5901512918864e-13
  41     -0.41164998230261
  42     -0.18020443481255
  43    -0.00084447373898592
  44    -0.060452014900003
  45     -0.21191988973724
  46     -0.18586368998441
  47     -0.22072149221079
  48    -4.1309456357131e-16
  49      0.17850993820734
  50     0.019780017379127
  51    5.6592076927696e-14
  52    -0.0070405412119158
  53     -0.13004090425333
  54      0.25204485188986
  55      0.24056330536235
  56     0.056239974396134
  57    3.3525565069411e-14
  58     -0.50127585980926
  59       -0.252143507443
  60    -5.0410643807907e-14
  61      0.18852234398127
  62     -0.16411502310151
 Sym= A
 Ene=    0.8356987342
 Spin= Alpha
 Occup=    0.00000
   1      0.18583489190545
   2    0.0087979671392194
   3    -0.0071744260779634
   4      0.21675005577257
   5      -0.4674107161428
   6      0.18607406142481
   7    -0.023122597891035
   8    2.0704234692588e-15
   9     -0.24089326061746
  10     -0.02469971782038
  11    -3.5978456728958e-15
  12     0.021611049877038
  13     0.046734271473932
  14      0.51949860172004
  15     -0.12188161748879
  16      0.16954344500013
  17    8.1242214541385e-17
  18     -0.14260327324179
  19     -0.16017428596553
  20    5.4604273061806e-15
  21    -0.026521406898338
  22      0.84999819837079
  23       -1.106518970201
  24     -0.46823803331758
  25      0.32496473160222
  26    9.0993839477797e-15
  27      0.59886808613168
  28     -0.16008771772316
  29    -1.5332567414428e-14
  30      0.16404604661697
  31      0.24475239939714
  32    -0.026521406899676
  33      0.84999819836329
  34      -1.1065189701477
  35      0.46823803331096
  36     -0.32496473160553
  37    -1.4074814198502e-15
  38     -0.59886808614147
  39       0.1600877177109
  40     7.95836059384e-15
  41      0.16404604660921
  42      0.24475239940092
  43     0.021611049877127
  44      0.04673427147076
  45      0.51949860171484
  46       0.1218816174878
  47     -0.16954344500155
  48    1.8834731615869e-15
  49      0.14260327325692
  50        0.160174285967
  51    -5.4213521263159e-15
  52    -0.0071744260778502
  53        0.216750055769
  54     -0.46741071614565
  55     -0.18607406142072
  56     0.023122597892259
  57    -2.1737455891175e-15
  58      0.24089326061475
  59     0.024699717823043
  60    3.9407242983568e-15
  61      0.18583489190528
  62    0.0087979671359888
 Sym= A
 Ene=    0.9141481029
 Spin= Alpha
 Occup=    0.00000
   1     -0.22648832080373
   2    -0.070219334944675
   3    0.0093309627986832
   4     -0.19893216122126
   5    -0.046945446080324
   6    -0.045489564223362
   7    -0.086831674185627
   8    4.8682638006529e-15
   9     -0.13521829473157
  10     -0.15120266184152
  11    -6.2679432485019e-15
  12     0.002675873388715
  13     -0.21533465187692
  14     -0.17776085299776
  15     0.046437342023476
  16     -0.11876774776699
  17    7.8433275802878e-16
  18      -0.4924780104509
  19     0.029527567173114
  20    1.8518731166632e-15
  21    -0.049915522880885
  22     -0.50531920849867
  23       2.0596988657403
  24      0.73882970613481
  25     0.024642003352998
  26    3.6916494770455e-16
  27     -0.12260049078273
  28      0.52178822157218
  29    -2.1060825901512e-15
  30     -0.30393137124552
  31      0.17739910087079
  32     0.049915522880624
  33      0.50531920850851
  34      -2.0596988657515
  35      0.73882970614011
  36     0.024642003348456
  37    -2.0221197086036e-15
  38     -0.12260049078911
  39      0.52178822157779
  40    3.7517081669053e-15
  41      0.30393137124875
  42      -0.1773991008721
  43    -0.0026758733883298
  44      0.21533465187568
  45       0.1777608530051
  46     0.046437342023984
  47     -0.11876774776855
  48    1.8657725000334e-15
  49     -0.49247801045102
  50     0.029527567173933
  51    -1.0760147391939e-15
  52    -0.0093309627987316
  53      0.19893216122223
  54     0.046945446076962
  55    -0.045489564228218
  56    -0.086831674183341
  57    5.3535300360513e-15
  58     -0.13521829472715
  59     -0.15120266184422
  60    -6.3379067833518e-15
  61      0.22648832080413
  62     0.070219334947471
 Sym= A
 Ene=     0.934561863
 Spin= Alpha
 Occup=    0.00000
   1    -2.3567551234929e-14
   2    -1.1065464077569e-14
   3    -2.3544528134133e-15
   4    3.0006271050205e-14
   5    -1.3321951381768e-14
   6    -1.4284363501201e-14
   7    3.7515641126318e-14
   8      0.63920723735329
   9    1.034042618842e-15
  10    -5.435112789256e-14
  11     -0.78956507931536
  12    -1.6762270251706e-15
  13    2.4128926689403e-14
  14    1.2797071679838e-14
  15    -2.6889905658635e-14
  16    5.3781318602446e-14
  17      0.16985955118631
  18    4.0347485156443e-14
  19    -5.7312329707572e-14
  20     0.016401100746281
  21    -1.81033401375e-15
  22    -8.6958048862402e-15
  23    -2.0245773573963e-14
  24    2.2395308425302e-15
  25    5.5337787438371e-16
  26     -0.17348748564871
  27    1.0673852769732e-14
  28    -1.6205403802832e-14
  29      0.18070948787195
  30    -1.3100839109792e-14
  31    2.849696766166e-15
  32    1.0374372615639e-15
  33    -1.1185560719467e-14
  34    3.9312570873103e-14
  35    1.9426050855369e-15
  36    -1.714601474578e-14
  37     -0.17348748561811
  38    5.0894204577187e-15
  39    2.9387484405031e-14
  40      0.18070948784581
  41    8.993329426095e-15
  42    -2.5628873188214e-14
  43    1.1736331707095e-15
  44    -1.0781580229514e-14
  45    7.5020278663218e-15
  46    -1.1573825125178e-14
  47    1.8618929476418e-14
  48      0.16985955120403
  49    2.0801999660116e-14
  50    -2.4284286790392e-14
  51     0.016401100703811
  52    9.156503746309e-16
  53    -1.1919415567688e-14
  54    4.1361091067334e-16
  55    -1.4782421471574e-14
  56    1.6568012183474e-14
  57      0.63920723733106
  58    1.4920079332663e-14
  59    -1.506230061911e-14
  60     -0.78956507926709
  61    1.5634870373542e-15
  62    4.2047054094228e-15
 Sym= A
 Ene=    0.9500938286
 Spin= Alpha
 Occup=    0.00000
   1    1.0096417215004e-13
   2    1.0208133836467e-13
   3    1.4634895608949e-14
   4    -2.0437700781588e-13
   5    9.9420900335932e-14
   6    1.7142846477838e-13
   7    -2.6987373083687e-13
   8     -0.38213150292771
   9    -9.1571211608635e-14
  10    3.6367524970848e-13
  11       0.2399025352159
  12    1.3903303371147e-14
  13    -1.6884860800195e-13
  14    -4.7639830639237e-14
  15    1.8771124497296e-13
  16    -3.3175786640976e-13
  17     -0.56505121649232
  18    -2.396473777759e-13
  19    3.7724060375479e-13
  20      0.76459824386185
  21    1.2657791657284e-14
  22    9.5247810440993e-14
  23    5.1551435431129e-14
  24    -1.9760173014865e-14
  25    -1.0340065751515e-15
  26      0.12037375327303
  27    -1.3953475768288e-13
  28    6.316131660002e-14
  29      -0.6127122357583
  30    9.4823868889528e-14
  31    -4.133337544472e-14
  32    -9.993845929361e-16
  33    5.9743801848084e-14
  34    3.4895863078319e-14
  35    -5.0842377264612e-14
  36    6.8694051708499e-14
  37     -0.12037375326099
  38    6.4736686802553e-14
  39    -1.8291796572997e-13
  40      0.61271223574593
  41    2.7822339217996e-15
  42    7.9398015034826e-14
  43    2.0028293143861e-15
  44    -4.2645019916058e-14
  45    -7.6005702502366e-14
  46    -3.7028560363991e-14
  47    8.0063291497372e-14
  48      0.56505121649039
  49    4.6880102274909e-14
  50    -8.4682974946058e-14
  51     -0.76459824385109
  52    3.1800289726928e-15
  53    -5.3178508145484e-14
  54    4.8849682269947e-14
  55    -2.1175060564338e-14
  56    5.548752480928e-14
  57      0.38213150292697
  58    -4.1052636311069e-15
  59    -7.9188286177307e-14
  60     -0.23990253522157
  61    1.3377936932154e-14
  62    2.3354264314526e-14
 Sym= A
 Ene=    0.9636406007
 Spin= Alpha
 Occup=    0.00000
   1      0.16082328277243
   2     0.098685171796176
   3     0.019084770620478
   4     -0.23735636234422
   5     0.096711095908464
   6       0.2038956830102
   7     -0.32432484121813
   8    1.5508479995653e-13
   9     -0.11216231458247
  10      0.42724648221463
  11    -1.1052893422632e-13
  12     0.018136747777468
  13     -0.19036663292551
  14    0.0090383893706095
  15      0.23017412093367
  16     -0.43075423152806
  17    2.0476333297956e-13
  18     -0.31243672492407
  19      0.51427817005999
  20    -2.6270387712255e-13
  21     0.021477190028434
  22     0.048126934143991
  23     0.090383733937098
  24     -0.10206274614365
  25      0.12563703886572
  26    -3.6389030309912e-14
  27      -0.1214524415736
  28     -0.20329585640934
  29    1.9351062344616e-13
  30      0.15111142432409
  31     -0.21091249113954
  32    -0.021477190024243
  33    -0.048126934089603
  34    -0.090383733900135
  35     -0.10206274615517
  36      0.12563703888834
  37    1.0597568104826e-14
  38     -0.12145244149927
  39     -0.20329585648841
  40    -1.7089215832808e-13
  41     -0.15111142428886
  42      0.21091249114663
  43    -0.018136747771583
  44       0.1903666328484
  45    -0.0090383894124954
  46      0.23017412085358
  47      -0.4307542313796
  48    -1.8532112336369e-13
  49     -0.31243672482289
  50      0.51427816989119
  51    2.8246146302104e-13
  52    -0.019084770614071
  53      0.23735636225096
  54    -0.096711095853024
  55      0.20389568293963
  56     -0.32432484110114
  57    -4.623829532777e-14
  58     -0.11216231454926
  59      0.42724648205736
  60    -2.947153104672e-14
  61     -0.16082328273418
  62    -0.098685171750635
 Sym= A
 Ene=    0.9673036668
 Spin= Alpha
 Occup=    0.00000
   1     -0.11307741247503
   2     -0.13314168466604
   3    -0.018860547538522
   4      0.27269935328543
   5     -0.15647093888347
   6     -0.20771064349443
   7      0.34402130709694
   8    -1.8758496087353e-13
   9      0.09915070863163
  10     -0.45878970806601
  11    1.1110342910866e-13
  12     -0.01732279428945
  13      0.22699519773581
  14      0.12023544224008
  15     -0.23502791553744
  16      0.43703720193044
  17    -2.9188540050703e-13
  18      0.30374529583957
  19     -0.49582517716991
  20    3.9381215829018e-13
  21    -0.012216057439876
  22     -0.16543465061897
  23    -0.099952885224705
  24    -0.031116373661641
  25     0.066672442579381
  26    4.9648033350202e-14
  27      0.21706092325332
  28     -0.24289338205287
  29    -2.9069185027361e-13
  30     -0.10459138230237
  31    -0.028703068202838
  32    -0.012216057447047
  33     -0.16543465063214
  34    -0.099952885270348
  35     0.031116373630603
  36     -0.06667244253577
  37    -4.4663994041467e-14
  38     -0.21706092329433
  39      0.24289338198668
  40    2.8503494756504e-13
  41     -0.10459138235405
  42    -0.028703068130187
  43    -0.017322794295524
  44      0.22699519780046
  45      0.12023544223962
  46       0.2350279156151
  47     -0.43703720207983
  48    2.7860462671527e-13
  49     -0.30374529594913
  50      0.49582517734801
  51    -3.961027021768e-13
  52    -0.018860547545133
  53      0.27269935336647
  54     -0.15647093891597
  55      0.20771064356125
  56     -0.34402130720617
  57    1.4132677936494e-13
  58    -0.099150708668084
  59      0.45878970820766
  60    -5.3982114381508e-14
  61     -0.11307741253001
  62     -0.13314168469761
 Sym= A
 Ene=    0.9925991048
 Spin= Alpha
 Occup=    0.00000
   1     -0.42572987595825
   2      0.31724180462999
   3    -0.015709290080409
   4    -0.011461893870339
   5     -0.10985529254297
   6      0.55417980055068
   7     -0.15295463302654
   8    -1.6460556637873e-13
   9     -0.60045738119003
  10      0.15713719621322
  11    2.7053649208824e-13
  12     0.019026649467183
  13     -0.13111483911131
  14      0.27437395941039
  15      0.13669879032109
  16      0.37652292213264
  17    1.003937976224e-13
  18     0.085872770451937
  19     -0.42370373164642
  20    -1.930474984267e-13
  21    -0.005670118108521
  22     -0.18436657074583
  23      0.17017660060246
  24     0.097047807375517
  25     0.051466450553462
  26    1.3011880991555e-13
  27     -0.16612406491457
  28    -0.097985170287653
  29    -1.3155435202708e-13
  30     0.041578812204784
  31     -0.15398671535271
  32     -0.00567011810905
  33      -0.1843665707503
  34      0.17017660073363
  35    -0.097047807389269
  36    -0.051466450551974
  37    -1.2262391040867e-13
  38      0.16612406487642
  39     0.097985170226945
  40    1.0998498337334e-13
  41     0.041578812214478
  42       -0.153986715333
  43     0.019026649465597
  44     -0.13111483909885
  45      0.27437395936005
  46     -0.13669879030458
  47     -0.37652292208513
  48    -1.3443676102531e-13
  49    -0.085872770420896
  50      0.42370373159032
  51    2.4509703097494e-13
  52     -0.01570929007901
  53    -0.011461893863921
  54     -0.10985529254208
  55     -0.55417980049277
  56      0.15295463300669
  57    1.5251876702713e-13
  58        0.600457381132
  59     -0.15713719617641
  60    -2.7303621898523e-13
  61     -0.42572987592463
  62      0.31724180459677
 Sym= A
 Ene=    0.9953359998
 Spin= Alpha
 Occup=    0.00000
   1    1.0970652905076e-13
   2    -9.357092233189e-14
   3    3.0135454021026e-15
   4    1.4487930123248e-14
   5    3.2986825650226e-14
   6    -1.5936091705874e-13
   7    6.3232966560679e-14
   8     -0.46968084070012
   9    1.6679843146954e-13
  10    -5.658706374689e-14
  11       0.8072490169534
  12    -6.8581370748082e-15
  13    5.0340361984225e-14
  14    -3.7008629222645e-14
  15    -5.370449236737e-14
  16    -5.2076543289333e-14
  17      0.35155429749606
  18    2.8720855708483e-14
  19    5.2543638777574e-14
  20      -0.6609188509236
  21    1.0097383491345e-15
  22    4.7365612515551e-14
  23    -1.5620880304299e-13
  24    -3.9902462273262e-14
  25    -9.1105007440442e-15
  26      0.36160746049839
  27    4.9758051552947e-14
  28    -5.0875451814057e-14
  29     -0.32965494398069
  30    -3.168046726866e-14
  31    2.3868054514161e-14
  32    2.2367509290253e-15
  33    4.8888322689697e-14
  34    5.3534007798986e-14
  35    3.0496010387738e-14
  36    8.4894719578142e-16
  37     -0.36160746051967
  38    -1.0337494900835e-13
  39    -2.8649531643411e-14
  40      0.32965494403125
  41    -7.638357576093e-16
  42    3.7094830157333e-14
  43    -7.7210476876941e-15
  44    5.4525645589577e-14
  45    -1.1559659904528e-13
  46    5.9792876544407e-14
  47    1.6721539058219e-13
  48     -0.35155429744691
  49    4.8096608203133e-14
  50    -1.8872396993633e-13
  51      0.66091885083173
  52    6.8213652850792e-15
  53    5.3246960012949e-15
  54    4.1775839114991e-14
  55    2.3465852338132e-13
  56    -6.7204945113662e-14
  57      0.46968084073543
  58    -2.5046810026094e-13
  59    7.8265785783797e-14
  60     -0.80724901695748
  61    1.7837518949886e-13
  62    -1.3674963085969e-13
 Sym= A
 Ene=     1.007476369
 Spin= Alpha
 Occup=    0.00000
   1     -0.32211888237601
   2      0.31399539679576
   3    -0.012085406248401
   4    -0.064970262440547
   5    -0.029200782797823
   6      0.54132730002816
   7      -0.1950918270303
   8    4.5065852572045e-14
   9     -0.55359807769422
  10      0.33889974110625
  11    -6.1472356888024e-14
  12     0.014431803703297
  13     -0.12484132386438
  14      0.47040376954693
  15      0.15236889795615
  16      0.43313628606809
  17    -3.9839433248827e-15
  18      0.26017479895036
  19     -0.52587247694819
  20    1.3598406641877e-14
  21    0.0030578951748301
  22     0.029588101283482
  23      -1.1322991023065
  24     -0.10056947443181
  25    -0.0006854215608176
  26    -3.7791314855926e-14
  27     -0.33752269456017
  28     -0.50299474860835
  29    5.3511974847617e-14
  30    -0.097901553359344
  31     -0.14905430314369
  32    -0.0030578951742896
  33    -0.029588101265065
  34       1.1322991022853
  35     -0.10056947442192
  36    -0.00068542155307351
  37    3.2318700371289e-14
  38     -0.33752269457845
  39     -0.50299474862518
  40    -3.4244227185844e-14
  41     0.097901553353306
  42      0.14905430316537
  43    -0.014431803705498
  44      0.12484132388006
  45      -0.4704037695786
  46      0.15236889797084
  47      0.43313628610574
  48    3.2414285426552e-14
  49      0.26017479895955
  50     -0.52587247698869
  51    -6.7312775983189e-14
  52     0.012085406249946
  53      0.06497026244267
  54     0.029200782808853
  55      0.54132730008924
  56     -0.19509182704836
  57    -5.438859663816e-14
  58     -0.55359807775958
  59      0.33889974112367
  60    9.0526465003477e-14
  61      0.32211888242215
  62     -0.31399539683072
 Sym= A
 Ene=     1.051814097
 Spin= Alpha
 Occup=    0.00000
   1    6.0270544320977e-15
   2    -9.2756550116895e-15
   3    9.8661285042935e-16
   4    -1.2329878541225e-14
   5    5.014098901562e-14
   6    6.1570256733678e-16
   7    6.423222804206e-15
   8      0.11763437012304
   9    7.6394994728636e-15
  10    5.6441649505823e-15
  11     -0.51319816802737
  12    -2.2043750637698e-16
  13    4.5718963061838e-15
  14    2.8507608879721e-14
  15    -1.1366226617902e-14
  16    5.2926086719586e-16
  17     -0.62915842268078
  18    6.4503853552752e-14
  19    1.1317545458946e-14
  20       1.1227855879212
  21    1.0964361305035e-15
  22    -2.2127492907508e-14
  23    -2.8950097335585e-16
  24    -1.6608093928399e-15
  25    4.3246800071767e-14
  26     0.085758124929047
  27    2.5741362165807e-15
  28    -1.7865093087035e-13
  29     -0.37852442068916
  30    6.9877374117322e-15
  31    -1.1211866132793e-13
  32    6.6574970845706e-16
  33    -1.7450595366521e-14
  34    9.4946321324763e-14
  35    1.589354979572e-15
  36    -2.1689692245831e-14
  37     0.085758124890139
  38    -5.3680145329564e-14
  39    9.0088977130793e-14
  40      -0.3785244206654
  41    5.2004270715702e-15
  42    -6.0923030420713e-14
  43    -9.1227122801175e-16
  44    2.6430139775065e-15
  45    5.6328510515244e-15
  46    1.2095623998113e-14
  47    2.466714450655e-14
  48     -0.62915842271278
  49    -2.0950634874315e-14
  50    -2.537321755986e-14
  51       1.1227855879743
  52    1.9550889288906e-15
  53    -1.5179832190472e-14
  54    3.4114387510305e-14
  55    2.7431877047031e-14
  56    -3.722240389856e-15
  57      0.11763437015743
  58    -3.3993310288646e-14
  59    -6.8748888610087e-15
  60     -0.51319816808128
  61    3.1289624468689e-14
  62    -1.9910440443323e-14
 Sym= A
 Ene=     1.061895622
 Spin= Alpha
 Occup=    0.00000
   1      0.11498504389919
   2      0.16426413197116
   3    -0.011088438310298
   4      0.17884535492745
   5     -0.80933894735512
   6    -0.029741976836529
   7     -0.13578150760423
   8    7.8074790019132e-15
   9     -0.10187325210486
  10      0.25275082786961
  11    -2.0547771426066e-14
  12    -0.016148871764473
  13      0.14450511709631
  14     -0.61760056956354
  15      0.21532663581317
  16      0.20327212664709
  17    -1.7086893937581e-14
  18     -0.87740424723877
  19     -0.58619028035569
  20    3.4686599933518e-14
  21    -0.017520744052992
  22      0.32892285444046
  23      -1.1321979598395
  24    -0.038254589066159
  25     -0.72550660794983
  26    6.2836605593343e-15
  27     -0.23955879685711
  28       2.8434475626054
  29    -1.6099881815945e-14
  30     -0.13529449837344
  31       1.8938812753853
  32    -0.017520744052599
  33      0.32892285443861
  34      -1.1321979598793
  35     0.038254589065018
  36      0.72550660793321
  37    -1.0406152280369e-15
  38      0.23955879688679
  39      -2.8434475625526
  40    -1.2679780397055e-14
  41     -0.13529449836927
  42       1.8938812753526
  43    -0.016148871764218
  44      0.14450511709927
  45     -0.61760056956246
  46     -0.21532663581175
  47     -0.20327212664703
  48    -2.9740245251624e-14
  49      0.87740424721702
  50      0.58619028034249
  51    5.4230930812879e-14
  52    -0.011088438310355
  53      0.17884535492667
  54      -0.8093389473355
  55     0.029741976831062
  56      0.13578150759795
  57    1.2373496894402e-14
  58      0.10187325210606
  59     -0.25275082786206
  60    -3.2901730895939e-14
  61       0.1149850438961
  62      0.16426413196519
 Sym= A
 Ene=     1.088180538
 Spin= Alpha
 Occup=    0.00000
   1     0.060275080095582
   2      0.29475226999977
   3    -0.0036937653218145
   4     0.030635596878232
   5     -0.68566148321225
   6     -0.17208306397864
   7      -0.2864216304359
   8    6.0748414691913e-15
   9      0.06615416281046
  10       0.3838940735413
  11    -1.1811594959677e-14
  12    -0.010842239754374
  13     -0.14590792928411
  14      0.11319900799735
  15      0.07845723007503
  16     0.064392442895115
  17    -5.1811363511549e-15
  18     -0.66889316724018
  19     -0.59308362887227
  20    1.3337497869119e-14
  21    -0.011703539596872
  22      0.27687777433685
  23      0.70655923620513
  24     -0.10199833517566
  25     -0.71886075934505
  26    2.8110814002839e-15
  27       1.0954031994538
  28        1.937047175622
  29    -5.5403097622771e-15
  30     -0.25657981579535
  31       1.4389474537221
  32     0.011703539597236
  33      -0.2768777743576
  34       -0.706559236171
  35     -0.10199833517455
  36     -0.71886075936844
  37    5.1573277363605e-16
  38       1.0954031994316
  39       1.9370471757087
  40    -7.4278784087228e-15
  41      0.25657981580133
  42      -1.4389474537802
  43     0.010842239753968
  44      0.14590792928542
  45      -0.1131990079763
  46     0.078457230079971
  47     0.064392442893487
  48    -1.4458548291977e-14
  49     -0.66889316726283
  50     -0.59308362886709
  51    2.4197425347616e-14
  52    0.0036937653225923
  53    -0.030635596885426
  54      0.68566148322464
  55     -0.17208306397741
  56     -0.28642163043303
  57    1.2034272962254e-15
  58     0.066154162809127
  59      0.38389407352854
  60    -9.2900084494398e-15
  61    -0.060275080089525
  62     -0.29475226999878
 Sym= A
 Ene=     1.101094882
 Spin= Alpha
 Occup=    0.00000
   1      0.59992159540627
   2     -0.14513669541747
   3     0.030655033633834
   4     -0.22774729572122
   5     -0.18276801174906
   6    -0.015685924496538
   7     -0.12259069625952
   8    3.8572412606494e-15
   9      -0.1746818354108
  10      0.61013755909956
  11    1.9858801351268e-15
  12    -0.031734707676177
  13       0.2300601626784
  14      0.13681818569922
  15     0.086608191600855
  16      0.22091823537179
  17    1.2346213984727e-14
  18     -0.13981974676959
  19     -0.70855719880528
  20    -2.0816075427006e-14
  21    0.00087642756306695
  22     -0.67738441970716
  23       0.6249658444994
  24     -0.05015462589337
  25      0.24035172933682
  26    -6.5869204763225e-15
  27      0.48824391222006
  28     -0.64270488812436
  29    1.371123593374e-14
  30      0.14717506364636
  31      -0.5177399315002
  32    0.00087642756283835
  33     -0.67738441969847
  34      0.62496584452348
  35     0.050154625902988
  36     -0.24035172932281
  37    1.9349840094808e-16
  38     -0.48824391225714
  39      0.64270488808626
  40    5.8260571304492e-15
  41      0.14717506363536
  42     -0.51773993146891
  43    -0.031734707675793
  44      0.23006016266938
  45      0.13681818571131
  46    -0.086608191604635
  47     -0.22091823536934
  48    1.5892990391044e-14
  49      0.13981974678628
  50      0.70855719880515
  51    -3.0131691696232e-14
  52     0.030655033632749
  53     -0.22774729571241
  54     -0.18276801176966
  55     0.015685924500833
  56      0.12259069626613
  57    -8.664030129097e-15
  58      0.17468183540309
  59     -0.61013755909726
  60    2.048649861571e-14
  61      0.59992159539119
  62     -0.14513669539974
 Sym= A
 Ene=     1.152483663
 Spin= Alpha
 Occup=    0.00000
   1      0.72518848646531
   2     -0.52588311732559
   3     0.044223186072194
   4     -0.42365571617006
   5      0.40576063564972
   6     0.058747141227354
   7     0.036365350668632
   8    1.3658702546388e-15
   9     -0.25044113632172
  10      0.47450085041395
  11    -2.6114631357432e-15
  12    -0.025055791440863
  13      0.19657706731975
  14     -0.31456502907464
  15    -0.073084483583305
  16      0.19253406807622
  17    -1.5305114396258e-15
  18      0.21173848640282
  19     -0.57469910793272
  20    2.3077700677542e-15
  21    0.0012064947211111
  22     -0.13787221928787
  23     -0.47303423228629
  24      0.29235302090865
  25    -0.0076227983925324
  26    -1.7351546876942e-15
  27     -0.53203022689398
  28    -0.0040963729234045
  29    2.4570436966029e-15
  30      0.23273562148647
  31    -0.093268811746329
  32    -0.0012064947211042
  33      0.13787221930582
  34      0.47303423227488
  35      0.29235302090443
  36    -0.0076227983850045
  37    1.4651082345965e-15
  38     -0.53203022686715
  39    -0.004096372951703
  40    -3.8070503795425e-15
  41     -0.23273562149056
  42     0.093268811768324
  43     0.025055791441912
  44      -0.1965770673263
  45      0.31456502906828
  46    -0.073084483582944
  47      0.19253406808175
  48    -1.4561362405702e-15
  49      0.21173848640497
  50     -0.57469910795414
  51    3.8229057167813e-15
  52    -0.044223186072553
  53      0.42365571616932
  54      -0.4057606356347
  55      0.05874714122131
  56     0.036365350655956
  57    1.4031199187396e-15
  58     -0.25044113631676
  59      0.47450085044349
  60    -2.7879157681931e-15
  61     -0.72518848647088
  62      0.52588311730781
 Sym= A
 Ene=     1.191591965
 Spin= Alpha
 Occup=    0.00000
   1      0.41495937792627
   2      -1.1432005135561
   3     0.012679643324498
   4       -0.184872909089
   5     0.096550271656478
   6      0.33381033614405
   7      0.59418364828176
   8    3.4464825111303e-16
   9     -0.61882305746362
  10       -1.075804514537
  11    -4.1244846335337e-16
  12     0.018989858836595
  13    -0.023996158076619
  14     -0.28163041181856
  15      0.24473407233096
  16    -0.033305789523588
  17    -8.137465313791e-16
  18     -0.89143761717487
  19      0.30035505517446
  20    1.9845265144058e-15
  21    0.0019172705770037
  22     0.054572893836604
  23      0.36947934497387
  24      0.15858145454074
  25      -0.1739211212214
  26    1.6997767062712e-15
  27      -1.0128891543222
  28       1.3755211194995
  29    -3.0470669256766e-15
  30     0.053530613033265
  31      0.78070235950119
  32    0.0019172705771711
  33      0.05457289386811
  34      0.36947934475329
  35     -0.15858145457072
  36      0.17392112117966
  37    -1.6352226595346e-16
  38       1.0128891544018
  39      -1.3755211193628
  40    -1.3318952740815e-16
  41     0.053530613079277
  42      0.78070235939292
  43     0.018989858832957
  44    -0.023996158030968
  45      -0.2816304119102
  46     -0.24473407229138
  47     0.033305789514866
  48    -2.328768346519e-15
  49      0.89143761702285
  50     -0.30035505515576
  51    3.8137301864521e-15
  52     0.012679643325124
  53     -0.18487290907603
  54     0.096550271700139
  55     -0.33381033611311
  56     -0.59418364821685
  57    6.2420743563387e-16
  58      0.61882305739611
  59       1.0758045143809
  60    -1.9852116264967e-15
  61      0.41495937790649
  62      -1.1432005134471
 Sym= A
 Ene=     1.201529882
 Spin= Alpha
 Occup=    0.00000
   1      0.23896714100925
   2     -0.91742089228537
   3    0.0006264022254563
   4     -0.15948399486757
   5      -0.3050977537637
   6      0.25717390952937
   7      0.53357452287464
   8    9.0840928780876e-16
   9     -0.56782943115595
  10      -1.1990848774078
  11    -1.7139513139557e-15
  12      0.02565834532984
  13     -0.33586752748951
  14      0.67593879130283
  15      0.31154485967938
  16    -0.036863791067702
  17    -1.2686690345346e-15
  18      -1.2050225762928
  19     0.073100319657532
  20    2.997502147888e-15
  21    -8.7237255331231e-05
  22     -0.34903700182307
  23       1.9669498531986
  24     -0.20852252359993
  25     -0.30302714006911
  26    8.9306740078088e-16
  27      0.63947027043547
  28       1.0880128258526
  29    -2.705012482074e-15
  30     -0.28888260514498
  31      0.75035370354473
  32    8.7237255104737e-05
  33      0.34903700181702
  34      -1.9669498532477
  35     -0.20852252357998
  36     -0.30302714009165
  37    -1.2641991811422e-15
  38      0.63947027030612
  39       1.0880128260273
  40    1.7017977974869e-15
  41       0.2888826051383
  42      -0.7503537036428
  43    -0.025658345332257
  44      0.33586752749198
  45     -0.67593879126581
  46      0.31154485971008
  47    -0.036863791072441
  48    -1.7095750432323e-15
  49      -1.2050225764057
  50     0.073100319696683
  51    1.7676842691622e-15
  52    -0.00062640222704686
  53      0.15948399488894
  54       0.3050977537545
  55      0.25717390957184
  56      0.53357452294947
  57    -6.0986288246455e-16
  58     -0.56782943123468
  59      -1.1990848775431
  60    2.4583797587538e-17
  61     -0.23896714106109
  62      0.91742089242786
 Sym= A
 Ene=     1.254210945
 Spin= Alpha
 Occup=    0.00000
   1      0.23709164661919
   2      -0.4142309145822
   3     0.013588504831515
   4     0.082167951279296
   5      0.80861750734927
   6      0.17616313742198
   7     0.020608399461014
   8    -2.3954112776676e-15
   9      -0.1093736290421
  10      0.25876177908232
  11    2.8746511866366e-15
  12    0.0027493305959572
  13      0.28916221144106
  14      -0.2023255921775
  15     -0.21777808524758
  16     -0.17846297788898
  17    -8.2419356907814e-16
  18       1.2885536157319
  19      0.56563083670628
  20    -8.6667365137027e-16
  21    -0.0039543525717205
  22      0.97280723258694
  23      -5.2060634238647
  24      0.16070365515332
  25     0.038595874757602
  26    1.6387000614411e-16
  27      -2.2958241351856
  28      -1.8232598679898
  29    1.0702742623979e-15
  30     -0.60612864141973
  31      0.32151478277705
  32    0.0039543525716693
  33     -0.97280723258626
  34       5.2060634238611
  35      0.16070365515245
  36     0.038595874758483
  37    2.359321102916e-15
  38      -2.2958241351887
  39      -1.8232598679783
  40    -3.2235333693652e-15
  41      0.60612864141551
  42     -0.32151478278089
  43    -0.0027493305961638
  44      -0.2891622114387
  45      0.20232559217405
  46     -0.21777808524466
  47     -0.17846297788923
  48     4.62681259982e-16
  49       1.2885536157182
  50       0.5656308367077
  51    2.6110637123205e-16
  52    -0.013588504831585
  53    -0.082167951276292
  54     -0.80861750734717
  55      0.17616313742355
  56     0.020608399465842
  57    -2.2314065971329e-16
  58     -0.10937362904653
  59      0.25876177906984
  60    2.3750843196932e-16
  61      -0.2370916466203
  62      0.41423091459065
 Sym= A
 Ene=     1.270491072
 Spin= Alpha
 Occup=    0.00000
   1      0.20097311890501
   2     -0.27008319301696
   3     0.026472113163702
   4     -0.69641856788227
   5       1.9104487356778
   6    0.00062379804465081
   7    -0.061316152568515
   8    1.0853782561607e-15
   9      0.40378859329321
  10      0.62207121978425
  11    -8.1334765157677e-16
  12    -0.0063074924072423
  13     -0.20349214436964
  14      0.35754751444653
  15     -0.39737268571578
  16     0.092586970575824
  17    3.4463201906085e-15
  18        1.886130913659
  19     -0.22195121341749
  20    -4.6512499877639e-15
  21    -0.0040273679368208
  22      0.49245192491459
  23      -1.3188795540336
  24      0.09870307954239
  25     -0.07942166045823
  26    -1.9184649441087e-15
  27      0.52012382711339
  28      -1.4471639650193
  29    3.7016352624465e-15
  30     -0.52481822283076
  31    -0.069185577705751
  32    -0.0040273679368499
  33      0.49245192491718
  34      -1.3188795540486
  35    -0.098703079545221
  36     0.079421660458293
  37    -7.7658720599698e-16
  38     -0.52012382709677
  39       1.4471639650221
  40    1.3935020265522e-15
  41     -0.52481822283148
  42    -0.069185577704779
  43    -0.0063074924072546
  44     -0.20349214436656
  45       0.3575475144443
  46      0.39737268571478
  47    -0.092586970576191
  48    2.8397259673915e-15
  49      -1.8861309136529
  50       0.2219512134183
  51    -4.6627788763434e-15
  52      0.02647211316395
  53      -0.6964185678804
  54       1.9104487356701
  55    -0.00062379804681804
  56     0.061316152567957
  57    2.3794947801047e-17
  58     -0.40378859328611
  59     -0.62207121978422
  60    1.4896983313312e-15
  61      0.20097311890965
  62     -0.27008319302119
 Sym= A
 Ene=     1.395380041
 Spin= Alpha
 Occup=    0.00000
   1      0.26815398153836
   2       0.4729699532133
   3    -0.0013075609932237
   4      0.73239192857858
   5     -0.96836597915087
   6      0.13980189672519
   7     -0.17490181252123
   8    1.7780523489439e-16
   9     -0.30208380172944
  10      0.61284307634458
  11    -6.5062182463371e-16
  12    0.0032818794598959
  13      0.29109066274197
  14     -0.68845204925669
  15     -0.13371654558557
  16    -0.081592514961827
  17    -6.6121218764853e-16
  18      0.11284552691402
  19      0.14706948485944
  20    1.3177911476021e-15
  21    -0.024545024406565
  22       -1.195872048989
  23       3.5023842382892
  24      -0.1851342963479
  25     -0.11465940026761
  26    -7.810238115835e-16
  27       0.5911901835613
  28      0.25699742170255
  29    -3.5604774582047e-16
  30     -0.25368314503442
  31     -0.39338471882682
  32     0.024545024405492
  33       1.1958720489754
  34      -3.5023842381728
  35     -0.18513429637511
  36     -0.11465940026438
  37    -1.0905363633933e-15
  38       0.5911901836931
  39      0.25699742171384
  40    1.6735812957362e-15
  41      0.25368314501234
  42      0.39338471880406
  43    -0.0032818794591863
  44     -0.29109066268859
  45      0.68845204911219
  46     -0.13371654556622
  47    -0.081592514943882
  48    -1.0883620234637e-16
  49      0.11284552685536
  50      0.14706948479201
  51    -5.3240877916176e-16
  52    0.0013075609936927
  53     -0.73239192851003
  54      0.96836597911969
  55      0.13980189670328
  56     -0.17490181251006
  57    -1.3249060636328e-16
  58     -0.30208380170176
  59      0.61284307628709
  60    3.776738362855e-16
  61     -0.26815398150961
  62     -0.47296995319822
 Sym= A
 Ene=     1.407257336
 Spin= Alpha
 Occup=    0.00000
   1     -0.31040671940388
   2     -0.18606181502636
   3    -0.0038764189745385
   4     -0.77554281225845
   5      0.40004219582898
   6     -0.23990632756345
   7      0.13169051738099
   8    1.4919031144909e-15
   9      0.30909329148034
  10     -0.63499325071813
  11    -3.1284131370324e-15
  12    -0.0069359817165034
  13     -0.60839461982654
  14       1.5429459712692
  15      0.18592642716861
  16      0.19694014489436
  17    -1.5464959857297e-15
  18     -0.60742786021306
  19     -0.73160956862076
  20    3.6037396635892e-15
  21      0.01251377920355
  22      0.15591494988292
  23      -1.3083004015955
  24      -0.2860099281757
  25     0.030810099418531
  26    -1.1389523619096e-15
  27       1.3819747066878
  28      0.23735010356796
  29    6.8285307847041e-17
  30      0.28627401096862
  31      0.28287686973884
  32     0.012513779205766
  33      0.15591494998686
  34      -1.3083004018871
  35      0.28600992815924
  36    -0.030810099428418
  37    6.2062066926354e-16
  38      -1.3819747066412
  39     -0.23735010355527
  40    -5.9991513372891e-16
  41      0.28627401099347
  42      0.28287686977449
  43    -0.0069359817167991
  44     -0.60839461985427
  45       1.5429459713353
  46     -0.18592642718275
  47     -0.19694014490264
  48    7.1003782634062e-16
  49       0.6074278602367
  50       0.7316095686374
  51    -1.1236480224063e-15
  52    -0.0038764189744727
  53     -0.77554281232288
  54       0.4000421959042
  55      0.23990632757646
  56      -0.1316905173973
  57    -3.1865156898594e-16
  58     -0.30909329150411
  59      0.63499325077763
  60    7.9511670041466e-16
  61     -0.31040671942873
  62     -0.18606181506827
 Sym= A
 Ene=     1.454670139
 Spin= Alpha
 Occup=    0.00000
   1      0.14143939813529
   2      0.12280040967194
   3     0.010178456232885
   4      0.03754863367519
   5      0.26114733201446
   6    -0.036025026311437
   7    -0.063286592831186
   8    5.2694160448934e-16
   9     0.098214470048889
  10      0.43232028503685
  11    -2.5685647805368e-16
  12     0.013015445649077
  13     -0.25032244134279
  14      -1.0439687909089
  15     -0.43139907839623
  16     0.021699836101748
  17    6.7119107524431e-16
  18      0.55667152271044
  19    -0.0013006070851957
  20    -1.3271985270085e-15
  21    0.0092774306355419
  22    -0.087190431226078
  23       -0.365057442705
  24      0.17437329113118
  25     -0.20639455285205
  26    -5.069442570923e-16
  27      -1.1048706615308
  28       2.3363426892227
  29    5.8973871137368e-16
  30      0.78697697787323
  31      0.64282753519856
  32    0.0092774306354172
  33    -0.087190431229545
  34     -0.36505744268092
  35     -0.17437329113424
  36      0.20639455285223
  37    -6.9992690469157e-16
  38       1.1048706615447
  39      -2.3363426892327
  40    2.3077815771505e-16
  41      0.78697697787373
  42      0.64282753519811
  43     0.013015445649152
  44     -0.25032244133561
  45        -1.04396879092
  46      0.43139907839201
  47    -0.021699836101436
  48    -2.9584587751141e-16
  49     -0.55667152268526
  50     0.001300607083957
  51    6.4306479842188e-16
  52     0.010178456232844
  53     0.037548633684752
  54      0.26114733198756
  55     0.036025026309894
  56     0.063286592831459
  57    1.2366523315104e-15
  58    -0.098214470038673
  59     -0.43232028503303
  60    -1.5141050235452e-15
  61      0.14143939813738
  62      0.12280040967231
 Sym= A
 Ene=     1.550535575
 Spin= Alpha
 Occup=    0.00000
   1     -0.13506129537968
   2      0.16214775979111
   3    -0.00060882917856291
   4     -0.79295566506895
   5       2.8872108494298
   6      -0.1062741072743
   7    -0.055085001381195
   8    1.2036996430737e-16
   9       1.1965666808497
  10      0.70282661478906
  11    -5.3322963045843e-16
  12    0.0023349553835456
  13     -0.37448217089134
  14     -0.16520515516826
  15     -0.50128956681432
  16    -0.030599017477737
  17    2.2979814438113e-16
  18       2.6081766426661
  19      0.15836302410768
  20    9.6635915280699e-16
  21    -0.012003780270871
  22     -0.43991006609088
  23      0.73513372501483
  24     -0.39390661316856
  25    -0.085922518622562
  26    -1.0341167070802e-15
  27       2.1069865226527
  28     -0.38478688079674
  29    5.9608704374772e-16
  30     -0.17151207749052
  31    -0.073543049183172
  32      0.01200378027074
  33      0.43991006608937
  34     -0.73513372500181
  35     -0.39390661316698
  36    -0.085922518624528
  37    -4.8399479193986e-16
  38       2.1069865226498
  39     -0.38478688078451
  40    1.5700015598703e-16
  41      0.17151207748521
  42     0.073543049178511
  43    -0.0023349553836656
  44      0.37448217089836
  45      0.16520515516507
  46     -0.50128956681936
  47    -0.030599017476905
  48    -4.3338329756366e-16
  49       2.6081766426775
  50      0.15836302410368
  51    4.3075404495172e-16
  52    0.00060882917839106
  53      0.79295566507146
  54      -2.8872108494358
  55     -0.10627410727505
  56    -0.055085001381521
  57    -1.503507627273e-16
  58       1.1965666808513
  59      0.70282661479407
  60    3.1432959025297e-16
  61      0.13506129537813
  62     -0.16214775979196
 Sym= A
 Ene=     1.812986486
 Spin= Alpha
 Occup=    0.00000
   1      0.37229917019927
   2      0.37136536700332
   3     0.014719379432127
   4      0.72958239257981
   5      -3.3633957740155
   6    -0.046892277901001
   7    -0.035923813692353
   8    1.2487564518129e-15
   9      -1.3856019415158
  10      0.02324630992085
  11    -2.0281225517989e-15
  12     -0.03559190622655
  13       -1.345770597852
  14       5.5206609975609
  15     0.063680555879539
  16       0.1572109914348
  17    -1.3019411322165e-15
  18     -0.34432621608879
  19      -1.7987841320289
  20    2.6468184113413e-15
  21    0.0070656731502907
  22    -0.033320469653935
  23      -1.3972619105821
  24      0.17823157613522
  25      0.10388703813603
  26    -1.8676016504947e-16
  27       1.6431013132101
  28      -2.1670240224032
  29    -7.7930214530358e-16
  30     -0.24232350070973
  31     -0.60816038557904
  32    0.0070656731488047
  33    -0.033320469667654
  34      -1.3972619103983
  35     -0.17823157612778
  36     -0.10388703813164
  37    7.9273074290134e-16
  38      -1.6431013132265
  39       2.1670240223395
  40    -9.7077532337139e-16
  41     -0.24232350071568
  42     -0.60816038556687
  43    -0.035591906225489
  44      -1.3457705977972
  45       5.5206609973797
  46    -0.063680555887527
  47     -0.15721099142972
  48    -6.9188495902561e-16
  49      0.34432621611998
  50       1.7987841319747
  51    1.2124074153719e-15
  52     0.014719379431433
  53      0.72958239255405
  54      -3.3633957739225
  55     0.046892277900522
  56     0.035923813690992
  57    -3.9705252737511e-16
  58       1.3856019414729
  59     -0.02324630990653
  60    -9.6769879587303e-17
  61      0.37229917018463
  62      0.37136536699022
 Sym= A
 Ene=     1.844748999
 Spin= Alpha
 Occup=    0.00000
   1     -0.36464213614386
   2     -0.30722267504074
   3    -0.016856902876901
   4     -0.66184314059043
   5       2.3992109108622
   6     0.010722139250769
   7     0.033012229887405
   8    -3.1180427553113e-16
   9       1.1049467522384
  10     -0.31931623744868
  11    2.2599375478473e-16
  12     0.025780452977113
  13       1.3303601207839
  14      -4.4571803295477
  15      0.18030855221019
  16      -0.1265070327407
  17     1.15975182058e-16
  18     -0.65526596203694
  19       1.3370516725862
  20    1.2797004214928e-16
  21    -0.038015583286427
  22     -0.36893646421894
  23       4.6152008940475
  24     -0.19723760603838
  25     -0.10917831423936
  26    -1.0825243163247e-16
  27      0.52209395683735
  28       1.5601180068824
  29    -2.8236977447593e-16
  30     -0.15126385980361
  31      0.28886109482369
  32     0.038015583286729
  33      0.36893646421776
  34      -4.6152008941043
  35      -0.1972376060461
  36     -0.10917831424329
  37    1.0190027025791e-15
  38      0.52209395677404
  39       1.5601180069655
  40    -6.8148942115499e-16
  41      0.15126385979502
  42     -0.28886109484673
  43    -0.025780452978477
  44      -1.3303601208392
  45       4.4571803297697
  46       0.1803085522086
  47     -0.12650703274698
  48    -4.2067060579155e-16
  49     -0.65526596202348
  50       1.3370516726586
  51    4.517801072994e-16
  52     0.016856902877511
  53      0.66184314062044
  54      -2.3992109109987
  55     0.010722139252542
  56     0.033012229888749
  57    1.2285067795544e-16
  58       1.1049467522952
  59     -0.31931623744982
  60    -1.5965432598483e-16
  61      0.36464213615944
  62      0.30722267505547
