[Molden Format]
made by pyscf v[2.9.0]
[Atoms] (AU)
H   1   1    -5.23879324882549    -2.08616882439197     0.00000000000000
N   2   7    -5.43454052943856    -0.10999528853256     0.00000000000000
N   3   7    -3.32931381708035     0.96100699256469     0.00000000000000
C   4   6    -1.14187645939906    -0.55479146482818     0.00000000000000
H   5   1    -1.33192432602045    -2.61430003305479     0.00000000000000
C   6   6     1.14187645939906     0.55479146482818     0.00000000000000
H   7   1     1.33192432602045     2.61430003305479     0.00000000000000
N   8   7     3.32931381708035    -0.96100699256469     0.00000000000000
N   9   7     5.43454052943856     0.10999528853256     0.00000000000000
H   10   1     5.23879324882549     2.08616882439197     0.00000000000000
[GTO]
1 0
 s    3 1.00
             18.731137    0.03349459952309
             2.8253937    0.23472694665786
             0.6401217    0.81375731841339
 s    1 1.00
             0.1612778                   1

2 0
 s    6 1.00
              4173.511  0.0018347994430301
              627.4579   0.013994995751693
              142.9021   0.068586979179805
              40.23433    0.23224092950117
              12.82021    0.46906985760962
              4.390437    0.36045489058067
 s    3 1.00
             11.626358   -0.11496102288211
               2.71628   -0.16911803366165
              0.772218     1.1458522280731
 s    1 1.00
             0.2120313                   1
 p    3 1.00
             11.626358   0.067580023248036
               2.71628    0.32390711142648
              0.772218    0.74089525487354
 p    1 1.00
             0.2120313                   1

3 0
 s    6 1.00
              4173.511  0.0018347994430301
              627.4579   0.013994995751693
              142.9021   0.068586979179805
              40.23433    0.23224092950117
              12.82021    0.46906985760962
              4.390437    0.36045489058067
 s    3 1.00
             11.626358   -0.11496102288211
               2.71628   -0.16911803366165
              0.772218     1.1458522280731
 s    1 1.00
             0.2120313                   1
 p    3 1.00
             11.626358   0.067580023248036
               2.71628    0.32390711142648
              0.772218    0.74089525487354
 p    1 1.00
             0.2120313                   1

4 0
 s    6 1.00
             3047.5249  0.0018347001629433
             457.36951    0.01403730124668
             103.94869   0.068842606114048
             29.210155    0.23218442062076
              9.286663    0.46794134155879
              3.163927    0.36231203217765
 s    3 1.00
             7.8682724   -0.11933240861517
             1.8812885   -0.16085421161283
             0.5442493     1.1434564825515
 s    1 1.00
             0.1687144                   1
 p    3 1.00
             7.8682724   0.068999095584993
             1.8812885    0.31642397975315
             0.5442493    0.74430825237435
 p    1 1.00
             0.1687144                   1

5 0
 s    3 1.00
             18.731137    0.03349459952309
             2.8253937    0.23472694665786
             0.6401217    0.81375731841339
 s    1 1.00
             0.1612778                   1

6 0
 s    6 1.00
             3047.5249  0.0018347001629433
             457.36951    0.01403730124668
             103.94869   0.068842606114048
             29.210155    0.23218442062076
              9.286663    0.46794134155879
              3.163927    0.36231203217765
 s    3 1.00
             7.8682724   -0.11933240861517
             1.8812885   -0.16085421161283
             0.5442493     1.1434564825515
 s    1 1.00
             0.1687144                   1
 p    3 1.00
             7.8682724   0.068999095584993
             1.8812885    0.31642397975315
             0.5442493    0.74430825237435
 p    1 1.00
             0.1687144                   1

7 0
 s    3 1.00
             18.731137    0.03349459952309
             2.8253937    0.23472694665786
             0.6401217    0.81375731841339
 s    1 1.00
             0.1612778                   1

8 0
 s    6 1.00
              4173.511  0.0018347994430301
              627.4579   0.013994995751693
              142.9021   0.068586979179805
              40.23433    0.23224092950117
              12.82021    0.46906985760962
              4.390437    0.36045489058067
 s    3 1.00
             11.626358   -0.11496102288211
               2.71628   -0.16911803366165
              0.772218     1.1458522280731
 s    1 1.00
             0.2120313                   1
 p    3 1.00
             11.626358   0.067580023248036
               2.71628    0.32390711142648
              0.772218    0.74089525487354
 p    1 1.00
             0.2120313                   1

9 0
 s    6 1.00
              4173.511  0.0018347994430301
              627.4579   0.013994995751693
              142.9021   0.068586979179805
              40.23433    0.23224092950117
              12.82021    0.46906985760962
              4.390437    0.36045489058067
 s    3 1.00
             11.626358   -0.11496102288211
               2.71628   -0.16911803366165
              0.772218     1.1458522280731
 s    1 1.00
             0.2120313                   1
 p    3 1.00
             11.626358   0.067580023248036
               2.71628    0.32390711142648
              0.772218    0.74089525487354
 p    1 1.00
             0.2120313                   1

10 0
 s    3 1.00
             18.731137    0.03349459952309
             2.8253937    0.23472694665786
             0.6401217    0.81375731841339
 s    1 1.00
             0.1612778                   1

[5d]
[7f]
[9g]

[MO]
 Sym= A
 Ene=    -15.67851295
 Spin= Alpha
 Occup=    2.00000
   1    -1.7439181491559e-05
   2    -5.504370849605e-05
   3    1.3836695243789e-05
   4    -6.2426444659889e-05
   5     0.001264117654515
   6    7.4921696136721e-05
   7    9.1144520236826e-06
   8    5.1010699939188e-06
   9    0.00052171915993669
  10    0.00027850058339003
  11    3.0429412411796e-06
  12    7.4554028652086e-05
  13    9.4922207095498e-05
  14    -0.0017688390906571
  15    -0.0001956252711504
  16    -2.2727013440152e-05
  17    7.9738718043872e-06
  18    0.00092509007816789
  19    0.00082362061407743
  20    6.0716650629401e-06
  21    -2.5415284045366e-05
  22    0.00016112025494075
  23    -0.00020698455464031
  24    0.00013419497209485
  25    -0.00014319473983554
  26    -8.1904256055995e-07
  27    -0.0014815776656366
  28     0.001438098302479
  29    4.5318711449274e-06
  30    0.00020056634171575
  31    0.00047250437605245
  32    -4.5779209893038e-05
  33    -0.00023271603306309
  34    0.0081883629850569
  35     0.000162023926455
  36    7.6599580545221e-06
  37    -2.3763284525593e-05
  38    0.0050873171983847
  39    -0.0032335119557311
  40    -1.5248287858561e-05
  41    -0.00029423607026075
  42    -8.3006890042175e-05
  43        0.988666364372
  44     0.022292242969856
  45    -0.020089967319663
  46    0.00041258467837741
  47    0.0042497390169346
  48    -7.3431293186915e-05
  49    0.00060786698674692
  50    -0.0049638784839706
  51    -5.2221144013056e-05
  52      0.12610102547648
  53    0.0038594617982442
  54    0.0078728071978066
  55    0.0011502195921968
  56    -0.00029599489436229
  57    -6.5005222698104e-05
  58    -0.0014966883082592
  59    -0.00067039107781734
  60    -4.5493391235593e-05
  61    -0.00044389112584234
  62    -0.0010559606954235
 Sym= A
 Ene=    -15.66641433
 Spin= Alpha
 Occup=    2.00000
   1    -6.2184222444052e-05
   2    3.3056875859207e-05
   3    -4.3135307966983e-05
   4    -7.6049235416329e-05
   5    0.00039174878401578
   6    -6.3638263128914e-05
   7    2.2543760288531e-05
   8    -1.0033293490489e-05
   9    0.00020480837911014
  10    1.1828669415781e-05
  11    -5.9555168061135e-06
  12    3.3528909672291e-05
  13    -1.2035425998258e-05
  14    -0.00010299398638656
  15    6.7770431394766e-05
  16    -0.00010903628257355
  17    -1.5715322554778e-05
  18    0.0001052076178794
  19    -9.8650903660116e-05
  20    -1.2002704263041e-05
  21    3.8154571792814e-05
  22    -0.0003902222337801
  23    0.0028488800532048
  24    -0.00023747134547285
  25    8.5025818294781e-05
  26    1.5659473884063e-06
  27    0.0018325555946174
  28    0.00062892182666421
  29    -8.9838293234125e-06
  30    -0.00014465025752509
  31    0.00032459917682019
  32    0.00013953718197015
  33    -0.00069800562203637
  34    -0.0038668020840341
  35    -0.00065534815785855
  36    0.00014750639176764
  37    4.6722579214292e-05
  38    0.0013818338042116
  39    0.0022907535821428
  40    3.0312423634123e-05
  41    5.5643491745483e-05
  42    -0.00046703667889454
  43     -0.12821800696158
  44    -0.00085708980381249
  45     0.011585824603601
  46    -0.00050740080670364
  47    -0.0031496513386762
  48    0.00014473622884969
  49    0.0014215483156482
  50    1.1307706171875e-06
  51    0.00010132664855827
  52      0.98949300283442
  53      0.01918591583014
  54      -0.0177733604336
  55    -0.0055451427879742
  56    0.0020343182928363
  57    0.00012860601059428
  58      0.00253523635212
  59    -7.2761784802702e-05
  60    9.1594187329125e-05
  61    0.00049746034932783
  62    0.0038767930903034
 Sym= A
 Ene=    -15.64137847
 Spin= Alpha
 Occup=    2.00000
   1    0.00035389706925275
   2    0.00050246613216506
   3    -0.019245531902133
   4    0.00081630127351237
   5    -0.0060347720019837
   6    9.1861880708704e-05
   7    0.00028191895925109
   8    -5.5697291306624e-07
   9    -0.0029957853571491
  10    -7.2013563028282e-05
  11    -2.4910792380271e-07
  12     -0.99592214078526
  13    -0.024155102498239
  14     0.018124820779461
  15    0.00032495445916133
  16    0.0025148585238644
  17    -1.1639463855697e-06
  18    0.00019401975077635
  19    -0.0064546942073583
  20    -7.7860713268197e-07
  21    -4.242211565575e-05
  22    0.00052231650010548
  23    -0.0077743112666948
  24    -1.6392480511575e-05
  25    0.00024953620589856
  26    -9.110943819923e-07
  27    0.0046588915908789
  28    -0.0032289875928619
  29    -7.2508017837219e-07
  30    9.9199289927228e-05
  31    -0.00040821556514472
  32    -3.3448281862071e-05
  33    -5.4512816507393e-05
  34    0.00067433928416043
  35    -4.6736578726821e-05
  36    -0.00014569855868499
  37    -4.1799577936748e-07
  38    -0.0016034786150931
  39    0.0014358657069716
  40    -1.595568362989e-07
  41    -0.00021738990214568
  42    -0.00063108725005281
  43    3.792197540856e-05
  44    -8.3279643781085e-05
  45    0.0017324521493944
  46    -0.00018294854237392
  47    -5.5889918259169e-05
  48    -2.425235766956e-07
  49    0.00090783488173118
  50    0.00076845560935974
  51    -1.5055966989868e-07
  52    4.9885587946017e-05
  53    4.8612843901429e-05
  54    -0.0012367226179659
  55    7.5722233541064e-05
  56    2.6844626644837e-05
  57    -2.0412037584243e-07
  58    0.00048506445684203
  59    0.00027636981314589
  60    -8.1631320970386e-08
  61    2.5115716507376e-05
  62    9.6854367129942e-05
 Sym= A
 Ene=    -15.61774215
 Spin= Alpha
 Occup=    2.00000
   1    0.00030028502293371
   2     0.003133409089911
   3      0.99659424831871
   4     0.021420407790069
   5    -0.013993915682218
   6    0.0029932847631042
   7    -0.0013841234859639
   8    2.142878093056e-06
   9    -0.0038878318462223
  10    0.00070952326424078
  11    5.1223161905913e-07
  12    -0.019391028411918
  13    -0.00056902226004072
  14    0.0062537869391642
  15    0.00092403433618123
  16    0.0018122682960876
  17    3.8761288448214e-06
  18    -0.0016011204425933
  19    -6.6499436911015e-05
  20    2.929177531067e-06
  21    -2.0311324321534e-05
  22    -0.00039719013168511
  23    -0.0014855156301135
  24    0.00042392955403118
  25    -0.00027773471007873
  26    3.162950138374e-06
  27    -0.0022522241393851
  28    -0.0016090549525839
  29    2.5956636400593e-06
  30    0.00018192805885806
  31    -0.00052199113649727
  32    3.4117605024245e-05
  33    -0.00032462798603593
  34     0.002561961353223
  35    6.8996239807521e-05
  36    0.00020164027894248
  37    1.4376869798397e-06
  38    -0.0013649894807944
  39    -0.00060279804587058
  40    4.3617299324999e-07
  41    3.1462049723596e-05
  42    0.00038122654563056
  43    -6.3212040469402e-06
  44    -1.801785310194e-05
  45    -0.00043070840337204
  46    0.0001617021028336
  47    1.8056317242583e-05
  48    9.8434027058392e-07
  49    -0.00022488673784367
  50    -0.00015432128684431
  51    6.2823528535526e-07
  52    1.0215447822481e-05
  53    -8.8025929514356e-05
  54    0.00054977896729228
  55    -6.6380473878555e-05
  56    -3.5351041283087e-05
  57    8.3352212356254e-07
  58    -0.00036582593227445
  59    -5.7928427409588e-05
  60    4.6635619495571e-07
  61    -5.043675550206e-05
  62    5.3222873203284e-05
 Sym= A
 Ene=    -11.34781177
 Spin= Alpha
 Occup=    2.00000
   1    -7.4157705334505e-05
   2    -0.00024524224856442
   3    0.00021651691006696
   4    -0.00067676202723694
   5    0.00015789594040476
   6    -8.1919886613738e-06
   7    -0.00010086646143457
   8    4.7270596733123e-07
   9    0.0003152327489334
  10    -0.00036409973645454
  11    1.4130445843727e-07
  12    -0.00025529219428799
  13    -2.1323279579209e-05
  14    0.0019734263901838
  15    0.00013527327177737
  16    0.00045697420994605
  17    1.097645086336e-06
  18    0.00075355703848748
  19    0.00054860907649633
  20    9.7598422401435e-07
  21      0.99551534816762
  22     0.024419284647786
  23    -0.015509204425571
  24    0.00042841346565349
  25    0.00028991517996237
  26    2.1862209854297e-06
  27    -0.0026490847123292
  28    -0.0012923373916854
  29    -7.6062826586094e-08
  30    -8.083244541675e-05
  31    0.0024841995807956
  32     0.035539142092165
  33    -0.00012252812414342
  34    0.0065839281701331
  35    0.00034559818931224
  36    0.00020740800884082
  37    4.8764319107689e-07
  38    -0.0027814836162603
  39    -0.0015361087896703
  40    4.9777372986717e-07
  41    -0.00012646636070007
  42    0.00028715687168532
  43    4.880195585669e-06
  44    1.6367039322831e-05
  45    -0.001013716810327
  46    0.00011788113383526
  47    1.5620111414825e-05
  48    5.2228844653775e-07
  49    -0.00042632265937005
  50    -0.00037376466014094
  51    3.2948026807427e-07
  52    -1.2644630801682e-05
  53    -0.00010837708529342
  54     0.000949168546703
  55    -6.0965525920469e-05
  56    -1.4874727157876e-05
  57    4.7368388822618e-07
  58    -0.00053918698835192
  59    -0.00013134008746856
  60    2.2040286382234e-07
  61    -4.2574094144456e-05
  62    0.0001261460911756
 Sym= A
 Ene=    -11.32805053
 Spin= Alpha
 Occup=    2.00000
   1    3.9037869263452e-05
   2    -6.1221605437349e-05
   3    0.00014350436171882
   4    -0.00018719793911277
   5    -0.0011466985323589
   6    -2.4546441365622e-05
   7    -7.8491296358321e-05
   8    4.4587942550429e-07
   9    -0.00041964697531992
  10    -0.00017063757347695
  11    2.2674292057645e-07
  12    -5.0641957015018e-05
  13    5.1030332010817e-05
  14    0.0012530105150531
  15    0.00016092795528718
  16     0.000297615180571
  17    7.6533295456164e-07
  18    -0.00028217838635677
  19    -0.00010810228470885
  20    5.5349205567916e-07
  21     0.036052243851669
  22     0.001862723535565
  23    -0.0078667993187415
  24    0.00037428522336279
  25    0.00012913516540476
  26    5.9068041867164e-07
  27    -0.0030650332535046
  28    -0.0016226130014851
  29    3.4289842390283e-07
  30    0.00020703056852478
  31    2.8558721569308e-05
  32     -0.99545413291441
  33    -0.024920223004212
  34     0.015943080532691
  35    0.00016998591037881
  36    0.00071203829201882
  37    -5.5371818210951e-07
  38    -0.0027960405625358
  39    -0.0016245040265891
  40    2.8923476147427e-07
  41    0.00021124660847863
  42    -0.0021840039930713
  43    0.00017454844192847
  44    9.4333794288326e-05
  45    -0.001450645691434
  46    -3.6035378876367e-05
  47    7.402857580438e-06
  48    -8.413294578867e-07
  49    0.00067496077172406
  50    0.00037097079783743
  51    -6.4111454496638e-07
  52    -2.7284874021131e-06
  53    0.00023979071016028
  54    -0.00081195063859373
  55    -3.818745836775e-06
  56    1.9152318195109e-05
  57    -8.5746721476346e-07
  58    0.00030104939704853
  59    -0.00035010400787485
  60    -7.0253416610712e-07
  61    0.00010537300653147
  62    0.00043077646909295
 Sym= A
 Ene=    -1.422479086
 Spin= Alpha
 Occup=    2.00000
   1    -0.0013241022644113
   2    -0.0014188395474016
   3    0.0028189396952371
   4    -0.0064729457634988
   5     0.010219544069141
   6    -0.0050551509985405
   7    -0.00068288125651348
   8    1.2635078591528e-05
   9    0.0033775629838353
  10    0.0034759850162836
  11    8.2607117209682e-06
  12    0.0079873844008494
  13    -0.016647937574681
  14    -0.027598561197114
  15    -0.0033219692357593
  16    0.0035041247708555
  17    1.5963038755955e-05
  18    0.0094214666325514
  19     0.008647018245779
  20    1.2071894013325e-05
  21     0.015832996211067
  22    -0.031573742647055
  23    -0.035027515559142
  24    -0.016229371677612
  25    -0.007104196145401
  26    -1.1654601961452e-05
  27    -0.022057691870442
  28    0.0074245940573574
  29    1.3437345244446e-05
  30    -0.0051495637705138
  31    0.0033490708669969
  32     0.055267903882306
  33     -0.11695142075557
  34     0.039205122048825
  35    -0.059349112695148
  36     0.037085642332926
  37    -9.209559259744e-05
  38      0.02649781080857
  39    -0.046520284267219
  40    -6.4799099898029e-05
  41    -0.019139491554374
  42    0.0062493480754691
  43      0.15960256955682
  44     -0.34259030277467
  45     -0.31705979971259
  46    -0.095128703109185
  47     -0.12569749363426
  48    -0.00028502080536986
  49     0.028631805581938
  50     -0.05991461221167
  51    -0.00018610377281293
  52      0.13339037458204
  53     -0.29574840255073
  54     -0.19427858255435
  55      0.17453786010479
  56     0.025481252161975
  57    -0.00036547219328072
  58     0.035445921485941
  59    -0.012442353653612
  60    -0.00025973993004032
  61    -0.062516119696697
  62    0.0096607596716639
 Sym= A
 Ene=    -1.310350717
 Spin= Alpha
 Occup=    2.00000
   1    -0.031034449243983
   2    -0.018257875358124
   3     0.059970931343919
   4     -0.13188877998228
   5    0.0039300168222862
   6     -0.15857233454387
   7     -0.02202694564956
   8    -0.00011791597820055
   9    -0.031836589017203
  10     0.012116844719282
  11    -4.7064051521662e-05
  12      0.18571938979716
  13     -0.39629018959238
  14     -0.44346307514618
  15    0.0023334498449038
  16     0.042214415345319
  17    -0.00024979901755147
  18    -0.045907703249062
  19     0.010183206999555
  20    -0.00017851960128218
  21     0.096328853198494
  22     -0.19732966829743
  23    -0.028207112328677
  24     0.068027412573808
  25    -0.042966613375133
  26    -0.00019404834961276
  27    -0.029661922137266
  28     0.050384817288674
  29    -0.00016577409732379
  30    -0.055316446807078
  31    -0.014802488993578
  32     0.026588602545038
  33    -0.052753576865825
  34    -0.036123025672115
  35     0.045384383086351
  36    -0.00079461358000374
  37    -4.5189413688351e-05
  38     0.016064832148683
  39    -0.014132073077044
  40    -2.7127312784957e-06
  41    -0.017177448013769
  42    -0.0066339063133122
  43    -0.013232089565329
  44     0.029992757604143
  45     0.015696097978976
  46     0.013537902721938
  47     0.008173342804344
  48    7.6488292865282e-05
  49    -0.010607021863301
  50    -0.004094265277406
  51    5.8103642094906e-05
  52    -0.013103934154324
  53     0.028645142798096
  54     0.030711545055675
  55    -0.016241849591011
  56    -0.00064222397049123
  57    8.1028254898658e-05
  58    -0.0076243915257081
  59    0.00033756990297182
  60    6.4870633336844e-05
  61    0.0070130222345014
  62    -0.00070543802459313
 Sym= A
 Ene=    -1.101524534
 Spin= Alpha
 Occup=    2.00000
   1    -0.014066062007467
   2    -0.0082445303004784
   3     0.033099492777148
   4    -0.073042577710578
   5    -0.019157652202376
   6    -0.093429880333368
   7     -0.02337220445419
   8    1.2136543208687e-05
   9    -0.035906629485898
  10     0.010591399027511
  11    2.7468387763628e-05
  12     0.064810892050797
  13     -0.14683542631505
  14     -0.16674561874066
  15     0.089750823215551
  16    -0.034572827062565
  17    -4.8937629962176e-05
  18    0.0057206697424084
  19    -0.035445776861548
  20    -2.3942782807637e-05
  21     -0.11515185805611
  22      0.24793763660909
  23      0.17146591337935
  24      0.16976307183237
  25     0.050819395449974
  26    -0.00026694839049279
  27    0.0031756644049079
  28    -0.010198689658461
  29    -4.3273144458234e-05
  30     0.043987405051961
  31    -0.024861021094196
  32      -0.1591311583505
  33      0.33638102566848
  34      0.24404964887367
  35    -0.092182818589559
  36    -0.084736292822863
  37    -0.00086514210523529
  38    -0.001507208651972
  39    0.0056453213814767
  40    -0.0005295731605292
  41     0.069103912347032
  42    -0.016692374694308
  43    0.0083973672319632
  44    -0.025976404461842
  45    -0.025555853587111
  46     -0.17936128951184
  47     0.042387167192921
  48    -0.0024064902284046
  49     -0.03814033651149
  50     0.036090104280211
  51    -0.0016840000709126
  52     0.042862618726568
  53     -0.09703611748153
  54    -0.070263323059289
  55      0.10324997127685
  56     0.020056273387148
  57    -0.0021477930040189
  58     0.055862185579085
  59    -0.015022939598267
  60    -0.0015021885825813
  61    -0.021727465316839
  62    6.7176364172661e-05
 Sym= A
 Ene=   -0.8778469815
 Spin= Alpha
 Occup=    2.00000
   1     0.027098644016339
   2    0.0039545598310871
   3     0.028644130270456
   4    -0.070000412592684
   5    -0.014103033152638
   6    -0.093153334340503
   7     -0.10026786064962
   8    -0.00028370070372828
   9    -0.038437063814479
  10    -0.015393080676058
  11    -0.00017009527151489
  12     0.045721113853815
  13      -0.1133004569312
  14       -0.134492125764
  15      0.19169477225092
  16     -0.15082110900573
  17    -0.00045366160399812
  18     0.060401022468157
  19    -0.094295836125092
  20    -0.00033919759084015
  21     -0.12019943398957
  22      0.26317366779005
  23      0.17733927456629
  24    -0.075616289016772
  25    -0.038720473306316
  26    -2.7500470383669e-05
  27    -0.063823035328868
  28     -0.06211552571429
  29    -0.00027122552699661
  30      0.11589214813296
  31     0.007766516559865
  32     0.087847276193576
  33     -0.18894087338435
  34     -0.11099488608615
  35     -0.19929765798068
  36    -0.068222102961753
  37    0.0011076630061101
  38    -0.078780567078345
  39    -0.073650322703466
  40    0.00072676869166852
  41     -0.11848296614619
  42    -0.031862909441752
  43    0.0024344346120274
  44    0.0066052912186232
  45    -0.018964859420134
  46      0.21164863102219
  47     -0.13317030018791
  48    0.0034996340979221
  49     0.072155512648272
  50    -0.083233889896479
  51    0.0024624606902373
  52    -0.037677214101163
  53     0.090568308926557
  54     0.074743168322031
  55    -0.079061994367963
  56    -0.066527820204145
  57    0.0031509013956566
  58    -0.049923352570687
  59    -0.0042643651673731
  60    0.0022124498320487
  61    -0.003672424581244
  62    -0.0039918634331047
 Sym= A
 Ene=   -0.7732811123
 Spin= Alpha
 Occup=    2.00000
   1     0.093264875458063
   2     0.063366541480094
   3    -0.037791173238644
   4     0.078462353771875
   5     0.093141517193299
   6      0.06975954753275
   7    -0.073990644942016
   8    0.00045769432690284
   9     0.082840508292645
  10    -0.040791385294346
  11    0.00026373492356265
  12     0.012798793688908
  13    -0.022736945417272
  14    -0.053279249732527
  15     -0.15401189791787
  16      0.11059937848986
  17    0.00070062944222141
  18    -0.011342721088533
  19      0.13019946615237
  20    0.00053700591690913
  21    -0.00031000060161631
  22    -0.010084342815475
  23    -0.011269590437479
  24     0.051622644835223
  25       -0.338958725145
  26    -0.00012786299807864
  27    -0.025993771454951
  28     -0.14633108781717
  29    0.00041901581577003
  30      0.19343639053705
  31      0.12102962524931
  32     0.021987902323341
  33    -0.043245806238658
  34    -0.023225599401706
  35      0.18505808589966
  36     -0.21274582810018
  37    -0.0023259917016432
  38    -0.0047893131232938
  39    -0.081889206058669
  40    -0.0014911841786794
  41     -0.11664708950751
  42    -0.052808340329792
  43    -0.032290969732494
  44     0.063072099162294
  45      0.11649476454906
  46     -0.19357703444164
  47     0.056859357354151
  48    -0.0071894358512177
  49    -0.053690784906502
  50     0.073895747766367
  51    -0.0050648327553137
  52     0.017894732374548
  53    -0.042553012844081
  54    -0.030103314455906
  55       0.1170743776383
  56    -0.027697154493652
  57    -0.0063649958258443
  58     0.093171398579027
  59     -0.02775695336537
  60    -0.0044758355300223
  61    -0.044694436228698
  62    -0.026859304169591
 Sym= A
 Ene=   -0.7594016944
 Spin= Alpha
 Occup=    2.00000
   1       0.2074995663571
   2      0.11199008131822
   3    -0.036509003822668
   4     0.058937948937312
   5      0.16240661638399
   6    -0.064611773269247
   7     -0.29339922206661
   8    5.5030008181352e-05
   9     0.046239330426225
  10     -0.12045888964653
  11    -4.8954203369084e-05
  12     0.027528084846817
  13    -0.065133287678358
  14     -0.14301202704572
  15      0.14962955990941
  16     0.012856224783304
  17    0.00045444506173569
  18     0.077854233847369
  19     0.068805809465695
  20    0.00031145931784193
  21    0.0067597413357915
  22    -0.022395712610931
  23     0.070296237005652
  24     -0.12844319662942
  25    -0.052656721282256
  26     0.001062043201645
  27    -0.051065941155001
  28    -0.0066269162896422
  29    0.00028219857743911
  30     0.047251193198736
  31     0.047736490852982
  32    0.0018344166061616
  33    -0.0091834230572189
  34    -0.0011122867832332
  35     0.092716725363978
  36      0.15788840048642
  37    0.0028779662682187
  38     0.082521034708822
  39     0.081312777223433
  40    0.0017131305202431
  41     0.099388632725556
  42     0.062268446114647
  43     0.037964775370217
  44    -0.085449774560044
  45     -0.15427905178633
  46    -0.053628881443397
  47     0.038782175574519
  48     0.007969098521869
  49     -0.05387608761557
  50     -0.04022597639224
  51     0.005592159804318
  52    -0.0062748729084693
  53    -0.0019383917117834
  54     0.051655598649433
  55    -0.063587191504949
  56      0.28332358717495
  57    0.0070173046438877
  58     -0.11392512786418
  59      0.12479666701953
  60    0.0049251769095795
  61      0.18159296907216
  62      0.09701711612432
 Sym= A
 Ene=   -0.7466447412
 Spin= Alpha
 Occup=    2.00000
   1     -0.19739978409821
   2     -0.11328535361863
   3      0.07126638675119
   4     -0.14400383354269
   5     -0.23864184889363
   6     0.055501759512197
   7      0.21131909872959
   8    -0.00040210569316156
   9    -0.049709062879021
  10     0.094772967275383
  11    -0.00022138500561658
  12    -0.018864488252223
  13     0.039956305905612
  14      0.10090469122078
  15     0.002527245404762
  16      -0.1924765107851
  17    -0.00067072295384853
  18     -0.02995430746688
  19     -0.17742391994961
  20    -0.00051144941549286
  21    -0.022306770009177
  22     0.053239424136657
  23     0.040644499032706
  24     -0.13277531090023
  25     -0.01558324658718
  26    -5.329826419911e-05
  27    -0.018386358713047
  28    -0.007343810016847
  29    -0.00041118119833778
  30     0.010501405220476
  31    -0.027401096366795
  32     0.031418998126612
  33    -0.064491869774192
  34     -0.06589883094059
  35     0.090816407208446
  36     -0.11475740290825
  37    0.0016341868824918
  38     0.040836952994693
  39    -0.042593268243114
  40    0.0010624422303352
  41     -0.08654059462868
  42    -0.049935605352208
  43     0.010846208473468
  44    -0.029867160136213
  45    -0.046560217925723
  46     -0.19990403224189
  47    0.0015843785845493
  48    0.0052911426932143
  49    -0.087999923967211
  50    -0.030732241092808
  51     0.003734296411702
  52    -0.014440159130004
  53     0.013530236640626
  54      0.07929178826156
  55     0.038465439204262
  56      0.32175242011034
  57    0.0047324643630085
  58    -0.048699791066187
  59      0.13978024957829
  60    0.0033336447881899
  61      0.20259484641147
  62      0.10598685623637
 Sym= A
 Ene=   -0.7128912156
 Spin= Alpha
 Occup=    2.00000
   1    -0.0021743101350138
   2    -0.0088243847222523
   3     0.051443774364814
   4     -0.11939258146311
   5     -0.14895359874211
   6     0.003404121661429
   7    -0.089398154055796
   8    -0.00023000164346742
   9    -0.017246600068436
  10    -0.031479624549556
  11    -3.1527894655028e-05
  12    -0.0070021448859733
  13    0.0048576146085748
  14      0.04831645889373
  15      0.20483044914627
  16     -0.22555966459789
  17    -0.0011350283835345
  18      0.06388852684799
  19     -0.16343741041492
  20    -0.00076312426107436
  21     0.010810631606802
  22    -0.014852915945704
  23    -0.059833158939396
  24        -0.31476171305
  25     0.045235196134783
  26    -0.0022630473519479
  27     -0.11077272730627
  28    -0.026093778976439
  29    -0.00067720468920482
  30    -0.035120841476205
  31    -0.059241725973402
  32    -0.0030076225631654
  33    0.0099382763183023
  34     0.067347922020463
  35      0.29103780128681
  36     0.030134978938514
  37    -0.0058221136584283
  38     0.038727593835437
  39     0.014973350836015
  40    -0.0034417410456829
  41     0.013938005762496
  42    -0.027199248151426
  43    -0.036649670214481
  44     0.075010608086825
  45      0.15764678667262
  46     -0.10435793714815
  47      0.19970671957673
  48    -0.015936738367371
  49    -0.0044740747539994
  50      0.18315648429001
  51    -0.011167295077871
  52     0.042591919755293
  53    -0.087574047002163
  54     -0.15417733648586
  55     0.062701899867127
  56     -0.21080956434067
  57     -0.01418487472433
  58      0.12913010878587
  59       -0.107317986373
  60    -0.0099486656151948
  61     -0.18220104331342
  62     -0.10366074678592
 Sym= A
 Ene=    -0.655930333
 Spin= Alpha
 Occup=    2.00000
   1      0.11720314756394
   2     0.067680693159521
   3    -0.014719423398728
   4      0.02121275262847
   5     0.066523261102686
   6     -0.10841861678698
   7      -0.1704602256219
   8    -4.9620736848619e-05
   9    -0.031443032362263
  10    -0.075805652784659
  11    -8.3599113040962e-07
  12    -0.029740600378998
  13     0.061245379161326
  14     0.083203967623201
  15      0.19517752812892
  16      0.10245983166999
  17    -0.00030883761420642
  18     0.067563879541266
  19     0.068362432863032
  20    -0.00020232031758334
  21     0.025027266367609
  22    -0.048566661677626
  23     -0.12576864245994
  24     0.029710708102858
  25      0.26242032637371
  26    -0.00064097672086018
  27    -0.020681210547383
  28      0.16693484126536
  29    -0.00018194254655625
  30     -0.18123552865006
  31    -0.079714727301237
  32     0.015133672206056
  33    -0.027957558471915
  34    -0.051584519679483
  35    -0.015279300148363
  36      -0.2601777865373
  37    -0.0017419780738257
  38    -0.021384774846395
  39     -0.18914866206331
  40    -0.0010258417844454
  41     -0.17272202753829
  42    -0.075163207949769
  43    -0.034502667280504
  44     0.072560684185834
  45      0.11390287464219
  46     -0.19811179511536
  47    -0.090821750449515
  48    -0.004803796233367
  49    -0.056329751103129
  50     -0.03517575478333
  51    -0.0033791443265388
  52    -0.014485279526947
  53     0.025640856212241
  54     0.072481595915061
  55      0.16724904312492
  56     0.057595577554528
  57    -0.0041381186337552
  58     0.093204234552774
  59     0.018602920658858
  60    -0.0029061146774908
  61     0.039038192885255
  62     0.015927724797339
 Sym= A
 Ene=   -0.5814149711
 Spin= Alpha
 Occup=    2.00000
   1    0.0019105062417613
   2    0.00055820170667561
   3    0.0022704142458306
   4    -0.0049222678710298
   5    -0.0088756249831106
   6     0.011230689715458
   7    -0.0060609227537253
   8     0.077791317333858
   9    0.0064671975341209
  10    -0.003416073340236
  11     0.036151417056169
  12    -3.0563204177068e-05
  13    -0.00013271781979413
  14    0.0016490945935104
  15    -0.0009748003118002
  16    -0.010245535341351
  17      0.19013219393505
  18    0.0023216810872377
  19    -0.0062129060231012
  20      0.13772032023589
  21    0.0026322711663233
  22    -0.0047711319120412
  23    -0.021727884475256
  24    -0.0080829611554566
  25    -0.0017652534871996
  26       0.1718013660929
  27    -0.0092172132188437
  28    -0.0069300800380286
  29       0.1120592158215
  30    -0.0013774609284526
  31    -0.0019982275549428
  32    -0.0028583878445167
  33    0.0050520220511791
  34     0.025249953824523
  35     0.012441767095255
  36    0.0031555956912611
  37      0.16704353155166
  38    -0.0029025171952126
  39    -0.0052609154069117
  40     0.081366661651453
  41    0.0057224277134629
  42    0.0040191567064735
  43    -0.0012897720285499
  44    0.0023163536456071
  45    0.0059101723259957
  46    -0.013824095749521
  47    -0.011426895071766
  48      0.35023277339545
  49    -0.00049288772545224
  50    -0.0041031606487641
  51      0.24208397782055
  52    -0.0042847758696512
  53    0.0095706357686543
  54      0.01758798079543
  55     0.036179688790002
  56    -0.021027455830498
  57      0.30851451110325
  58     0.025394383185295
  59    -0.012976677345429
  60      0.21642089761394
  61    -0.010881722283116
  62    -0.0064234353481868
 Sym= A
 Ene=   -0.5639882762
 Spin= Alpha
 Occup=    2.00000
   1      0.01188551907908
   2    -0.0010607794528128
   3     0.020446031437905
   4    -0.043118648779103
   5    -0.076879283560845
   6      0.13439034982368
   7    -0.043067486250092
   8    -0.0080678715213259
   9     0.080964593596069
  10    -0.025819269787085
  11    -0.0038851603844695
  12    0.0069582059854228
  13     -0.01728051662754
  14    -0.0087122093296119
  15    -0.052873615264155
  16     -0.10056980037319
  17    -0.019024047913298
  18     0.018638237841526
  19    -0.057881375051997
  20    -0.013834504254708
  21     0.027370680373908
  22    -0.051909493594262
  23     -0.24179306286388
  24    -0.072750872167902
  25    -0.049193235526305
  26    -0.015708428056642
  27    -0.086648298245033
  28    -0.092762115083708
  29    -0.011234467467324
  30     0.014224478381171
  31     0.016502890493635
  32    -0.013352244473181
  33     0.001841770071311
  34      0.25309382841986
  35     0.013121447287017
  36      0.17058828126509
  37    -0.010845802052952
  38    -0.052706968907247
  39    -0.0083115208364068
  40    -0.0045811651262758
  41      0.14692320204279
  42      0.13878761096794
  43    -0.031582612756634
  44        0.070210446674
  45      0.10982204134664
  46    -0.098451311299285
  47     -0.42413958720051
  48    -0.017865079752349
  49    -0.018180547050661
  50     -0.30116219202388
  51    -0.012176771826072
  52    -0.041191897606099
  53     0.079725114082905
  54      0.19011199637324
  55      0.33914445702023
  56    -0.045502772242111
  57    -0.015178117441435
  58      0.15799214879111
  59    -0.044798515722503
  60    -0.010646179773137
  61     0.030966579694565
  62     0.062654653690037
 Sym= A
 Ene=   -0.5276039648
 Spin= Alpha
 Occup=    2.00000
   1    -0.00079056672453644
   2    -0.0009860043581723
   3    7.7788240376675e-05
   4    -1.8176507096793e-05
   5    -0.00030006974134478
   6    0.0021238449853202
   7    0.00090602208899232
   8      0.16666391220337
   9    0.0010096776185461
  10    0.00036074411287403
  11     0.083252771319119
  12    0.00059699127038527
  13    -0.0013477731954583
  14    -0.001978249905764
  15    -0.0018826148485307
  16    -0.0028526017570819
  17      0.37091595860892
  18    -0.00029964935995956
  19    -0.0020584290810917
  20      0.27170590247678
  21    4.1855981682394e-05
  22    -4.7401213963909e-05
  23    -0.0019995668604656
  24    -0.00037969994654598
  25    -9.503796930078e-05
  26       0.2576835592947
  27    -7.2994657206366e-05
  28    -0.00094220533505233
  29      0.22015028790906
  30    0.00042967712919929
  31    0.00085760361432799
  32    0.00086650765271086
  33    -0.0027443894376349
  34    0.00015240376947343
  35    -0.0059231147757282
  36    0.0066058651359453
  37     0.016814469173001
  38    -0.0017393013572383
  39    0.0019115557279967
  40    -0.028543651712043
  41    0.0041261804790108
  42    0.0047517142451161
  43    -0.0015492624302801
  44    0.0037626208844418
  45    0.0046152609758239
  46    0.0018841398998924
  47    -0.016518766974663
  48     -0.22247784849637
  49    -0.00063565261730342
  50    -0.013696995451182
  51     -0.16445727509639
  52    0.00071678123806007
  53    -0.0022336205359869
  54    -0.001530116058613
  55    -0.0023230951594123
  56    0.0085633298978941
  57     -0.20751296073929
  58    -0.0055689044371875
  59    0.0046245436850174
  60     -0.14597866456791
  61    0.0069425786958944
  62    0.0068382175234094
 Sym= A
 Ene=   -0.5160773764
 Spin= Alpha
 Occup=    2.00000
   1     -0.10436179884161
   2    -0.066175689796903
   3    -0.052847635598392
   4      0.11237107558681
   5       0.2392864692198
   6      -0.4528881991718
   7      0.21392684608734
   8    0.00046319248731351
   9     -0.31250116951943
  10      0.14841101118925
  11    0.00031246517962826
  12    -0.0084007776893216
  13    0.0093695419558079
  14     0.060066989309209
  15      0.18265299344303
  16      0.16987548318594
  17    0.0011119824035195
  18     0.024341346144916
  19     0.082221319393027
  20    0.0008044234840316
  21    -0.021636949574639
  22     0.033167495298438
  23      0.22035689731133
  24     -0.19371185524252
  25    -0.074694615774674
  26    0.00086379824442685
  27    -0.012889151754308
  28     0.032499343237717
  29    0.00058386345874264
  30     0.090474744122179
  31     0.072212314388249
  32     0.021168379070141
  33    -0.045217853888758
  34     -0.14828810744729
  35      0.13476901532152
  36     0.096174882951799
  37    0.00072065320761667
  38     0.098092104780608
  39     0.077748564866318
  40    0.00033081243672932
  41     0.053207115697031
  42     0.039142604007238
  43    -0.014249033452392
  44     0.026340164769042
  45     0.084925982523776
  46    -0.058613867742904
  47     -0.06793519688486
  48    0.0013980907660064
  49    -0.041032637468034
  50     -0.04605727552046
  51    0.00095548327454797
  52    -0.0049163405818884
  53     0.008154697739571
  54     0.032685254304809
  55      0.10851359754672
  56    -0.025183849738801
  57    0.0013085479857435
  58     0.070965553378065
  59    -0.027062707503924
  60    0.00091737786773593
  61    -0.007845085168244
  62    0.00088352747659184
 Sym= A
 Ene=               0
 Spin= Alpha
 Occup=    1.99966
   1    -0.013443928497794
   2      -0.1423754689525
   3     -0.16195407119048
   4      0.37714349646264
   5      0.43889352040167
   6     -0.01584702636446
   7      0.10831929001823
   8    -0.00053591648432188
   9    -0.083961231303815
  10     0.062267438373126
  11    -0.00023552060902298
  12     0.056447333477099
  13     -0.12408709493364
  14     -0.30176846379953
  15     -0.12700724708099
  16     -0.39313165929766
  17    -0.00093887870588175
  18    -0.030374217441163
  19      -0.2797454266639
  20    -0.00067630248307465
  21    -0.0040737049029644
  22     0.033590829061307
  23    -0.0064433698300067
  24    -0.028818213360576
  25     0.089496561335832
  26    -0.00075168750534936
  27    -0.038537644059397
  28     0.017998752918396
  29    -0.00056970857897935
  30    -0.080440781296046
  31     -0.10880156809579
  32    -0.014114057743489
  33     0.031865252884858
  34      0.08826358319405
  35    -0.028942022576457
  36    -0.041472196992505
  37    -0.00035164478707725
  38    -0.012649675835436
  39    -0.031374734228515
  40    -0.00013712172577711
  41    -0.023014363020563
  42    -0.044360153289605
  43    -0.0029844004994998
  44    0.0085935305969471
  45    -0.002112549401935
  46    -0.029914791482396
  47    0.0018421624560918
  48    -0.00023842874107988
  49     0.006137311708724
  50    0.0021210334349473
  51    -0.00014228247116139
  52    0.0012521150351996
  53    -0.0028614529400711
  54    -0.0064989800998485
  55     0.018241533648559
  56    0.0075336910224766
  57    -0.00017006551718712
  58     0.012522382506792
  59    0.0040044550721607
  60    -0.0001080999494707
  61    0.0014003169514943
  62    0.0037319475073724
 Sym= A
 Ene=               0
 Spin= Alpha
 Occup=    1.00000
   1    0.00095575864229347
   2    0.0006814890058216
   3    5.3264681901244e-05
   4    0.0012632054374187
   5    -0.0029538977176093
   6    -0.00037153156139164
   7    0.00014528608747957
   8      -0.6174519776411
   9    -0.00062860741444061
  10    0.00074682543271105
  11      -0.4818933364906
  12    -2.8949811954011e-05
  13    0.00016383604648281
  14    0.00010299244879079
  15    -0.00025321691449639
  16    -0.00021015531969389
  17     0.071154397969148
  18    -0.00040400549574371
  19    -5.7843092363133e-05
  20      0.13696769410469
  21    2.3680130240401e-05
  22    -0.00056945076387488
  23    0.00082600422170081
  24    0.00018228292774181
  25    1.4224249810888e-05
  26      0.25317202486191
  27    -0.0010907741648218
  28    0.00056902032860754
  29      0.25343711627434
  30    0.00032816438243365
  31    -0.00013680943574381
  32    -3.8358360518703e-06
  33    0.00031176060301198
  34    -0.00089754256904329
  35    -0.0001659295962806
  36    4.3575660604804e-05
  37    -0.018364479105946
  38    -1.2020810399492e-05
  39    -0.00056257804950029
  40    -0.087182018337065
  41    0.00025777843385152
  42    0.00031301679214832
  43    6.1988092139099e-06
  44    -0.00048662138637723
  45    0.00028266695214923
  46    0.00024680077818566
  47    5.0550423918334e-05
  48    -0.043891723590284
  49    -0.00090458316681013
  50    0.00010090251639926
  51    -0.036192800462018
  52    3.7941407029494e-07
  53    -0.00034504968359045
  54    0.00093253926539078
  55    0.00013152361662193
  56    -5.05194136406e-05
  57     0.015858613647752
  58    -0.00029879008945395
  59    -0.00012986252559319
  60     0.026920159799254
  61    -0.00013624764184971
  62    -5.0364952738957e-05
 Sym= A
 Ene=               0
 Spin= Alpha
 Occup=    0.00034
   1      0.54181947897577
   2      0.24501024334437
   3     0.046308797031694
   4      -1.0436515802291
   5        1.953842222067
   6    -0.027226219282511
   7     -0.15489952006239
   8     0.016437753562016
   9       0.7884350839051
  10       1.5087774859611
  11    -0.018093616657266
  12    -0.013285454638114
  13      0.37420699763053
  14      -1.7987030208223
  15    -0.043175661546496
  16      0.32604739223353
  17    -0.0024503082089006
  18      0.99799802398258
  19     -0.54742501137993
  20    0.00052110486626785
  21    0.0017303440846666
  22     -0.18934235860389
  23    -0.0092503518149288
  24     0.071325026809085
  25      0.13271077814088
  26    -0.0038340818996648
  27      0.43090311545695
  28      0.28281882455975
  29     0.013419135924846
  30     0.090251733370979
  31      0.33899264607696
  32      0.01569904633407
  33    -0.055669115388498
  34     -0.64315095141042
  35      0.07759102404148
  36     0.017102162414657
  37    0.00041689595248336
  38     0.015319317020546
  39      0.24921087824379
  40    -0.0083081691605719
  41    -0.031715915642082
  42    -0.013286986840832
  43    -0.0046640059704715
  44     -0.05633333446306
  45      0.26835694548069
  46    0.0083568094129945
  47     0.033755185290008
  48    -0.00071382759057059
  49     -0.19671896051199
  50      0.05590543393715
  51    0.0038801141403329
  52    0.0012299359651276
  53     -0.02204168127249
  54     0.061252138798553
  55    0.0057590749914934
  56    -0.0031346293265988
  57    0.0020582969440267
  58     0.011029158372644
  59    -0.030366323426628
  60    -0.0029389131145336
  61    -0.0043203787814466
  62    0.0055387475037492
 Sym= A
 Ene=               0
 Spin= Alpha
 Occup=    1.98847
   1    0.0021213323718062
   2    0.0042561247073466
   3    0.00078975785999639
   4    -0.00094381958461166
   5    -0.0022992287678803
   6    0.0046770052277351
   7    -0.0018902619916502
   8    0.00092922027144182
   9    0.0041951405739407
  10    -0.00022508104790883
  11    0.00055671004246573
  12    0.0002849935894778
  13    0.0015686919910333
  14    -0.010505489645604
  15    -0.0086981704720067
  16    0.0083243549783673
  17    0.0015363666087341
  18    -0.0011510160889481
  19     0.013962056402492
  20     0.001173270858182
  21    -0.0067540644611326
  22     0.018431692064474
  23    0.0031754781169122
  24      0.02760392329681
  25    -0.010433491219556
  26    -0.00010792764330571
  27    -0.026125533674088
  28    -0.010141366874077
  29    0.00090259056683805
  30    0.0057140876054015
  31    -0.019655916343821
  32    -0.017498950671038
  33     0.049860913374808
  34      0.14796225056593
  35     0.036354918098492
  36    -0.025753978775543
  37    -0.0044756057837527
  38     0.039213629401308
  39    -0.042096383945325
  40    -0.0028959627388093
  41    -0.017484947642363
  42    -0.050359637451425
  43      0.11368997367761
  44     -0.27170744687001
  45     -0.42881977092933
  46     0.008241361077449
  47      0.26079968438111
  48    -0.014269948855409
  49     0.026599098096801
  50      0.19147318600598
  51    -0.0099514328626447
  52     -0.13723114614859
  53      0.33350400197845
  54      0.48439717209968
  55      0.26682096675539
  56     -0.10905723740582
  57    -0.012812287050591
  58      0.19282331660439
  59    -0.087477252576385
  60    -0.0089381628883581
  61    -0.021855118079709
  62      -0.1270288365435
 Sym= A
 Ene=               0
 Spin= Alpha
 Occup=    1.00112
   1    0.00010261984763571
   2    5.5437067028372e-05
   3    9.305732353921e-06
   4    2.9582390116581e-05
   5    -0.00019571291255487
   6    -4.8933077456313e-05
   7    4.1390156605897e-05
   8    -0.013019262457118
   9    8.579379135088e-05
  10    -2.9295617837898e-05
  11     -0.05705266441484
  12    -2.6234458517874e-06
  13    3.4492636247347e-05
  14    -5.3024337698452e-05
  15    -4.1573592803119e-05
  16    2.0340819866356e-05
  17      0.20354182806132
  18    -0.00014503174996528
  19    4.3072765880775e-05
  20      0.19657870464913
  21    -7.2485185232696e-06
  22    7.6780704514928e-07
  23    0.0001970792722726
  24    6.6881337721799e-05
  25    6.0457532392935e-05
  26    -0.041196815490219
  27    5.9710771373397e-05
  28    3.8125014599903e-05
  29     0.072275039605859
  30    6.7167305506452e-05
  31    4.1751513806045e-07
  32    2.5091176394268e-05
  33    -0.00010202555564214
  34    -0.0002174578621067
  35    -0.00012785943071121
  36    8.1253553246607e-05
  37     -0.54602990529658
  38    -8.9400795171353e-05
  39    0.00019432133163552
  40     -0.47668207464005
  41    -2.0417955150029e-05
  42    -5.3387839963011e-05
  43    1.7122607071935e-05
  44    -6.0679105640661e-06
  45    3.4340807493485e-05
  46    5.4631958422808e-05
  47    2.362169435641e-05
  48    -0.0038566390052911
  49    -8.7383056495174e-05
  50    0.00012026462826536
  51     0.030243114006651
  52    -3.3922027900787e-06
  53    0.00010837086521164
  54    -7.8103111825019e-05
  55    -2.7323139336226e-05
  56    8.1989187924108e-05
  57       0.2719024921205
  58    -0.00018550024050028
  59    0.00011676636150611
  60      0.24385102935358
  61    -2.0745183769158e-05
  62    -2.2056916388389e-05
 Sym= A
 Ene=               0
 Spin= Alpha
 Occup=    0.01041
   1    -0.00026093336295059
   2    -0.00011940651468987
   3    -1.836391517011e-05
   4    -0.00016017980226001
   5    0.00092408943669447
   6    -0.00030585037025177
   7    1.8974834010745e-06
   8     0.050089361792815
   9    9.9271263407455e-05
  10    0.00010472305470269
  11     0.065885203021332
  12    -0.00014808379832115
  13    -0.00019183129372152
  14    0.0025656285511302
  15    0.00043973440122035
  16    -0.00023479748154206
  17     -0.07782034584171
  18    0.0020616270668273
  19    -0.00078773373981672
  20     -0.08640114596457
  21    0.0002710499973335
  22    -0.00088777228100195
  23    -0.0044176908486238
  24    -0.00086157765349274
  25    -4.2105804491126e-05
  26     0.012522922881433
  27    0.00074147897916974
  28    -0.00098622382754285
  29    -0.055859025280671
  30    -0.00051992590285272
  31    0.00038998235417669
  32    -0.0004279369634718
  33    0.0014613662076692
  34    0.0067694712245231
  35    0.0025239859722041
  36    -0.0024375922111259
  37      0.22572180043523
  38    0.0021513858917578
  39    -0.0038194366804177
  40      0.29269152000771
  41    0.00018896806701448
  42    0.0012981903164238
  43    0.0010364610527729
  44    -0.0057223550251793
  45    -0.0052145550711477
  46    0.00068354174910361
  47    0.0038194469881726
  48     -0.52946521341646
  49    0.0027016839287778
  50    -0.0076005966907733
  51     -0.49186601660996
  52    0.00057118624194917
  53    -0.0039759508307311
  54    -4.7107861397126e-06
  55    -0.0038095617152397
  56    -0.0026188250941071
  57      0.55839045160067
  58    0.00068729278624704
  59    -0.0049648875611563
  60      0.31832421617473
  61    0.0043385425921291
  62    0.0067164123928084
 Sym= A
 Ene=    0.1717285037
 Spin= Alpha
 Occup=    0.00000
   1    -0.0013334174287589
   2    -0.015802360041103
   3    -0.00065830048403866
   4    0.0017084292478015
   5    0.0087937725557021
   6    0.00013939573423384
   7    -0.0030409746499476
   8      0.15474604679288
   9    3.6069166404521e-05
  10    -0.0094570771706416
  11      0.33087692254312
  12    -0.00019941768617868
  13    -0.00021781737657812
  14    0.0063140545238761
  15    0.00058627835073773
  16    0.00015742957257078
  17     -0.39504204834553
  18    0.0014727239078929
  19    0.0026937815670554
  20     -0.64748348940368
  21    -0.00054603951501001
  22    0.00082163106415068
  23    0.0089514345605405
  24    0.00051545713016872
  25    -0.0032412137121924
  26      0.38302196932525
  27    0.0014087914150003
  28     -0.01149895603319
  29      0.80074238776054
  30    -9.4513402039144e-05
  31    -0.016513001433116
  32    0.00035245391897264
  33    -0.00056242739142309
  34    -0.003716182610853
  35    0.00060358042600189
  36    -0.00066839298828717
  37     -0.16719811943861
  38    -0.001614533853684
  39    0.00015041089705539
  40     -0.51343167013243
  41    0.00058441426801585
  42     0.005143982893806
  43    3.4093737726225e-05
  44    3.2064405328575e-05
  45    0.00056516473361569
  46    0.00018019346893091
  47    -0.00048840201845476
  48     0.030309103336099
  49    -0.00044047435524265
  50    0.00065716206923619
  51      0.14591913198181
  52    -9.0223476347705e-05
  53    0.00031053706046539
  54    0.00077107258811593
  55    -7.8646589688916e-07
  56    2.8092331737599e-05
  57     0.021535320752251
  58    -0.00045628320505774
  59    0.0002475699874855
  60    -0.019634017556174
  61    -0.00020423877435813
  62    -0.0011128580334508
 Sym= A
 Ene=    0.1984817104
 Spin= Alpha
 Occup=    0.00000
   1     0.037768863750441
   2      0.07915148388672
   3    0.0077812824538346
   4    -0.056773606392308
   5     -0.01698479863099
   6    -0.019097849323685
   7    -0.018332124158173
   8    0.00021426458874231
   9    -0.018298092570919
  10     0.079658211642777
  11    -0.0026106384339088
  12    -0.011042662745196
  13       0.0365356011786
  14    -0.023811430857561
  15     0.027031227370368
  16    -0.00046016418775971
  17    0.0017409642234894
  18    0.0091904688395038
  19    -0.054625805233248
  20    0.0024225978434759
  21     -0.02373311005493
  22     0.034798879046964
  23       0.2941169790463
  24     0.072685255240316
  25    -0.039410046846225
  26    -0.0017405090037241
  27    0.0044405001661438
  28     0.051077499826599
  29    -0.00072768201334948
  30    -0.042252634266161
  31     -0.31035393135398
  32     0.032658497863175
  33    -0.031040761028664
  34     -0.57476134899267
  35     0.062695603812247
  36     -0.20693637908533
  37    -0.00067027762128848
  38       0.2591144153775
  39     -0.76222360334301
  40    -0.0017781106389351
  41    -0.0056975502988002
  42       1.0062939145987
  43     0.019730639823502
  44    -0.017369089113522
  45     -0.36145182903741
  46     0.071027184423718
  47     0.048588345458074
  48    0.0028447547839875
  49      0.24772556868228
  50      0.11187255706941
  51     0.004434424221194
  52     0.055072353402804
  53    -0.059323940382768
  54     -0.96069779770956
  55     0.014601580125747
  56     -0.28005334794879
  57    -0.0022379074921705
  58      0.10684955896109
  59     -0.61084572063817
  60    -0.004118999642226
  61     0.048779530685445
  62       1.3542859946932
 Sym= A
 Ene=     0.267001893
 Spin= Alpha
 Occup=    0.00000
   1    0.0016959065991356
   2      0.77281060721939
   3     0.041643668072538
   4    0.0068388903550691
   5     -0.82395934832126
   6    -0.031673979967809
   7       0.1317615765357
   8    -0.00087244731872746
   9     -0.18335670309311
  10      0.14280362934236
  11    0.0037134987968315
  12     0.011991212609259
  13    -0.025448339412232
  14    -0.066779472271663
  15      -0.1179020012711
  16      0.04733647305762
  17    -0.0019124869536208
  18     -0.39115759593666
  19      0.15296728943594
  20    -0.0034741695832125
  21    -0.034272479018027
  22     0.054928330816777
  23      0.76045199847504
  24    -0.091770877626631
  25    -0.035280343317018
  26    0.0025498250365051
  27     -0.37696929972173
  28     -0.21686517869089
  29    0.0030415443687432
  30    -0.025660403974165
  31     -0.64237287756772
  32    -0.081071353409375
  33      0.10174867991348
  34       1.4927933193836
  35     0.041382656974829
  36      0.15323212411011
  37    -0.0011059804797134
  38       0.2839223469861
  39      0.65448390119408
  40    -0.0025459201246216
  41    -0.075791445501515
  42      -1.6281990188926
  43    0.0016025940889185
  44    0.00063273918749486
  45    -0.013717713577064
  46      0.10729441263087
  47    -0.087052664358389
  48    0.00075741511082373
  49      0.30702057988633
  50     -0.12854478342284
  51    0.0012581936091988
  52     0.043504494614852
  53    -0.078270564033014
  54     -0.64123042446498
  55     0.047338237169607
  56    -0.057605363836405
  57    -0.0005346805247065
  58      0.16216671002985
  59     -0.16066407270825
  60    -0.00049244054491993
  61     0.064897758454561
  62      0.65398658322751
 Sym= A
 Ene=    0.2847334595
 Spin= Alpha
 Occup=    0.00000
   1    -0.072302327428502
   2     -0.85713865841256
   3    -0.045810940451862
   4      0.10312146595256
   5      0.52697500148635
   6     0.030525231664569
   7     -0.10975578367958
   8    -0.00048311680881607
   9     0.062536776055209
  10     -0.37191973217614
  11     0.001279641851857
  12    -0.014161641358374
  13     0.026010736971866
  14      0.20514692833972
  15      0.10454061842277
  16    -0.030953929251437
  17    -0.00058140602572272
  18     0.088908376856168
  19     -0.14497911610447
  20    -0.0013207147540293
  21     0.069057649866311
  22    -0.083387052151249
  23     -0.86156431291047
  24      0.04907151359655
  25      0.17913482624554
  26    0.00095705840125564
  27      0.54635795834498
  28      0.83881920382343
  29    0.0017634467617915
  30     0.085200114833766
  31       1.7162111823061
  32    -0.037968001719884
  33     0.059734684361585
  34      0.23124363687636
  35     0.018118962300102
  36     0.094665296561557
  37    -0.00091279283729235
  38      0.44694101643421
  39      0.40843987574198
  40    -0.002340797237743
  41    -0.071698280749327
  42     -0.95418812986202
  43     0.012517412214179
  44    -0.030217749469735
  45     -0.15182173408509
  46     0.062755928139921
  47     0.040124897498348
  48    0.0014794920911034
  49     0.051140953732814
  50    -0.072707300577921
  51    0.0024721285897794
  52     0.034217642332501
  53    -0.054138853235842
  54     -0.46502730465686
  55     0.017734911263613
  56      -0.1228832404617
  57    -0.0010608830983448
  58     0.065566872008079
  59     -0.30207176918411
  60    -0.0018985153708709
  61     0.034677034975691
  62      0.73325732886851
 Sym= A
 Ene=    0.3247503679
 Spin= Alpha
 Occup=    0.00000
   1     -0.18776190529969
   2      0.93207328597911
   3     0.029355572639886
   4       0.2433213282512
   5      -1.2329402025998
   6    0.0036225230335849
   7       0.3034632007745
   8    -0.0045901769169651
   9     -0.31179505102478
  10    -0.023379371071317
  11     0.011308999940884
  12     0.034050360941876
  13    -0.098785379816602
  14     -0.15570270248617
  15    -0.092108050945314
  16     -0.20042335319669
  17    -0.004167327141372
  18      -0.5772919238584
  19      0.18475215902482
  20    -0.0075249932247055
  21     0.046912030836978
  22     0.037567475794628
  23      -1.2758955389239
  24    -0.082403869032382
  25      0.17624226889949
  26    0.0064812626551132
  27     -0.86674393445464
  28      0.93767965619755
  29    0.0034532309817082
  30    0.00063356672382321
  31       1.3108994885124
  32     0.014355140776765
  33     0.029696556490286
  34    -0.053352918348016
  35     -0.15647480245651
  36    -0.090806196708296
  37    -0.0017461503720844
  38     -0.62972159016911
  39     -0.90148879744818
  40    -0.0025761668717211
  41    -0.028181993619943
  42      0.88779179067261
  43    -0.029677310838555
  44     0.069631592157802
  45      0.38152387676413
  46    -0.083319562327897
  47     0.092844982802603
  48    0.00030849272912004
  49      0.12315869145233
  50       0.3353449952128
  51    -0.00035615359096832
  52    0.0068201288924888
  53     0.017654903469764
  54     -0.37323909072405
  55     0.020051373109041
  56    -0.015784585561323
  57    -0.00055171019729156
  58      0.18602067055342
  59    0.00029508015437993
  60    0.0016420204016094
  61    -0.0090827840200332
  62      0.17275708355291
 Sym= A
 Ene=    0.3458980882
 Spin= Alpha
 Occup=    0.00000
   1    -0.057378068233479
   2      0.80166608249546
   3     0.048142943063643
   4     0.018617213937886
   5      -1.3338391154592
   6      -0.1106336723428
   7     0.079950915961328
   8    -0.0013593999757356
   9     -0.64403301932532
  10    -0.0097420467552156
  11    0.0029328218514538
  12    -0.082024819378862
  13      0.10707497355353
  14        1.657702554535
  15     0.078157020958335
  16     -0.20173124376655
  17    -0.00088069327221217
  18     -0.18262316271905
  19     -0.70580028945493
  20    -0.0019507254002297
  21     0.045464411729893
  22    -0.063980765021233
  23     0.075508793028445
  24     0.076210677582666
  25    -0.036827215188052
  26    0.0016314596127027
  27       1.3086516125691
  28      0.44720997227525
  29    0.0015271711787377
  30    -0.073523138559606
  31      0.48561512299679
  32    -0.038544071080347
  33     0.065823387047113
  34     -0.19060747860975
  35      0.09514982026738
  36     -0.10778785995554
  37    -0.00098412882755753
  38       1.5236317711889
  39    -0.096541599096108
  40    -0.0022910165617705
  41     0.045213517679673
  42     0.022261792003758
  43     0.092834254664989
  44     -0.13547273890826
  45      -1.8543445671652
  46      0.08656627370227
  47     -0.15044995578959
  48    0.0014514974223916
  49     0.010912623035013
  50     -0.77939959491428
  51    0.0023130857213677
  52    -0.042425745371576
  53     0.048788893901018
  54       1.0368041267914
  55      -0.1103922157723
  56    -0.0032521626002501
  57    -0.0010861587918383
  58      -0.5960011191516
  59    -0.014797982295475
  60    -0.0016161395685586
  61    0.0091177783988253
  62      -0.5555082707904
 Sym= A
 Ene=    0.4695599972
 Spin= Alpha
 Occup=    0.00000
   1    -0.0067062827599538
   2      0.68433199030194
   3     0.034237393889583
   4     0.011236975317067
   5     -0.96364313900293
   6    -0.0070089533356675
   7     0.011902893466762
   8    0.00041564260872475
   9     -0.61813022897264
  10     0.099108832774525
  11    -0.0005285750447752
  12    -0.086605534289914
  13      0.08482179164601
  14       2.7111409544631
  15    0.0021486702318532
  16     -0.15591117975292
  17    -7.8925431805747e-06
  18      0.60852153898608
  19      -1.0268152127149
  20    0.00027473129493528
  21     0.024990257847011
  22      0.14501684489712
  23     -0.97922151215607
  24      0.14439119652818
  25      -0.1226297409334
  26    -0.0002325176637207
  27       2.1246169929832
  28      -1.7118607793707
  29    -0.00037543185828127
  30      0.12034253674745
  31     -0.91408725501491
  32     0.050540457337014
  33      0.12282395893105
  34       -1.861318211374
  35      -0.1053503365033
  36      0.16481105563317
  37    0.0002645604992149
  38      -1.4417458089765
  39       2.0207616802289
  40    0.0010092661445911
  41      0.13962458526205
  42     -0.97823980643864
  43    -0.084341364664319
  44     0.087390098663914
  45       2.6335709675857
  46    0.0080208449797439
  47      0.17256267849006
  48    -0.00071353760323885
  49     -0.63792130273618
  50      0.91396832261856
  51    -0.001360344141817
  52      0.03507265873944
  53     0.010300219632435
  54     -0.89044859044812
  55     0.025524151031475
  56    -0.010531121300623
  57    0.00043740504579526
  58      0.63795233826469
  59    -0.049011507990562
  60    0.0011559244017745
  61    -0.032816942334105
  62       0.5634549466274
 Sym= A
 Ene=    0.5123801776
 Spin= Alpha
 Occup=    0.00000
   1    0.0060717139525367
   2      0.33243324724609
   3    -0.015560271160837
   4      0.17087706067664
   5     -0.45190572864452
   6      0.15338828382913
   7     0.069316762846214
   8    -0.0017960958082889
   9     0.055336131912247
  10     -0.16415543210584
  11    0.0030510894568697
  12     0.045787891295939
  13    -0.085116258363871
  14     -0.46423567038863
  15      -0.1084895716691
  16     0.063458759272428
  17    -0.00075619262611758
  18     -0.69499967316668
  19     0.031793053800201
  20    -0.00095797832620884
  21     -0.13788034921401
  22      0.15999224072832
  23       4.3174781287286
  24     0.090843093093699
  25       0.2322056343351
  26      0.00156366283824
  27        2.187732364714
  28       2.0126944288582
  29    -0.0014061017391195
  30    -0.032406646907495
  31      0.65515893611927
  32      0.13204944178281
  33     -0.16249417443767
  34      -3.9992211165698
  35     0.077252856287253
  36      0.18873651602102
  37    6.9815601873572e-05
  38       2.7920758439092
  39       1.2029371589842
  40    0.0018417649584123
  41    -0.015367329449612
  42      -0.1231666127129
  43    -0.034459576215577
  44     0.070965556519254
  45     0.091283519593774
  46    -0.063062267939751
  47     0.091277206387322
  48    -0.00099703524553971
  49     -0.12730375832415
  50     -0.17714580024808
  51    -0.002607438838487
  52     0.020381333800497
  53     -0.12217332747655
  54      0.14745347913749
  55      0.19078161080401
  56     0.060638708462561
  57    0.00019641549321093
  58      0.19104391891299
  59      0.11016324133383
  60    0.0026572673672854
  61    -0.075106511768448
  62     -0.45591563437423
 Sym= A
 Ene=    0.5788095464
 Spin= Alpha
 Occup=    0.00000
   1    0.00082004569813769
   2     -0.50951511672933
   3     0.034795989402542
   4     -0.13918402199108
   5     -0.68320448941356
   6     -0.13157288751186
   7     -0.16949513140478
   8    0.0018551541611414
   9     -0.67237203285916
  10     -0.47710447255278
  11    -0.0026113715083413
  12    -0.045958237375259
  13      0.13716107111735
  14      0.35501908478581
  15    -0.073048726028169
  16    -0.024792498099438
  17    0.00027374891866899
  18     -0.93872367825838
  19      -0.2393953407322
  20    0.00075632559871058
  21     0.011635660566028
  22    -0.0093630350312682
  23     -0.50558251171046
  24      0.16817174296003
  25    -0.017610096226541
  26    -0.0011662627697441
  27      -0.8922101373758
  28      0.94119301563737
  29    0.00047093054298919
  30    -0.0090087906279146
  31      0.81501555505368
  32    -0.029545821725298
  33    0.0065603141794687
  34       1.0069564622267
  35    -0.029914226107989
  36    -0.092432413372664
  37    9.4562714866976e-05
  38      0.61230642213531
  39      -1.7920591106213
  40    0.00074265865336864
  41    -0.028156935244419
  42       1.2090054792586
  43    -0.044164790443918
  44     0.098267895897545
  45      0.94221493337299
  46      0.35315695504299
  47      0.03397626463558
  48    -0.00064965549647758
  49       2.2264052000479
  50      0.35389175090841
  51    -0.00089121144579204
  52     0.065979334222676
  53     -0.10943698024967
  54      -1.8643364518294
  55      0.15678140461362
  56      0.24203057763876
  57    0.00048102518063517
  58       1.4279652066344
  59       1.1740391223861
  60    0.00066849297468832
  61    -0.056587810236177
  62     -0.70658235700777
 Sym= A
 Ene=    0.6219264807
 Spin= Alpha
 Occup=    0.00000
   1    -0.043127357674153
   2      0.76850801626164
   3    -0.069293231253343
   4      0.21720142928623
   5       1.6740448886191
   6      0.15683505960971
   7      0.27902265981545
   8    -0.0024927303090592
   9       1.3569439146122
  10       1.0505645899645
  11     0.003521643528944
  12      0.03606571096494
  13    -0.057617734496718
  14      -1.0282928977831
  15      0.39487358241696
  16    -0.059172853571256
  17    -0.00033957880407998
  18       2.1173170237523
  19      0.41552642110283
  20    -0.00085643959340343
  21     0.030269389486241
  22     0.043383770554747
  23      -1.2128969086073
  24       0.1231775947625
  25     -0.11755693469821
  26    0.0017144890594278
  27      0.45755074090504
  28       -1.044741085131
  29    -0.0011240291788649
  30      0.05540005289079
  31     -0.60197737522668
  32    -0.026108572141341
  33    -0.048786491623352
  34       1.0231439086914
  35       0.2546598698476
  36     -0.10350584777218
  37    0.00013947896980123
  38    -0.060656362111789
  39     -0.27534087662377
  40    -0.0006917183577931
  41    -0.063559863493432
  42     0.050188026596921
  43     0.001433537290503
  44    -0.056282374652032
  45      0.62643992823388
  46      0.27775812706704
  47    -0.042056724396318
  48    0.00058698633662222
  49       1.1274061435077
  50      0.15017456823064
  51    0.0005339692852296
  52     0.033350906857049
  53    -0.058717215104729
  54     -0.96589090280632
  55     0.045753261224096
  56      0.10358238019683
  57    -0.00046027764282052
  58      0.69165815238665
  59      0.58452110522235
  60    -0.00031302013269766
  61     0.011837327167613
  62     -0.29515322678372
 Sym= A
 Ene=    0.7125950327
 Spin= Alpha
 Occup=    0.00000
   1    -0.0010353950772001
   2    0.0015754543225133
   3    -0.00010009423971823
   4    0.0013768812689667
   5    -0.0001697280450503
   6    0.00029096357579652
   7    0.00084527291269642
   8    -0.077512241981494
   9    0.00065904469245032
  10    -0.00046427999264594
  11     0.070436381953577
  12    5.8667530842659e-05
  13    -9.4205269476705e-05
  14    -0.00038276773578814
  15    0.00028089100538312
  16    -0.00079651914784392
  17     -0.14850036557722
  18    0.0017133293161628
  19    0.0014612761959127
  20    -0.017832626335411
  21    0.0001142281982443
  22    0.00069386316581804
  23    -0.002067747209037
  24    0.00041148592631852
  25    -0.00044455242149835
  26     -0.67316583705514
  27    -0.0004275650049151
  28    0.00016295001716995
  29       0.5490252366606
  30    0.00059281985209697
  31    0.0002590454442448
  32    -6.0711061084605e-05
  33    0.00022930758161088
  34    0.0014572643959491
  35    -8.0305244888869e-05
  36    -0.00054835281094192
  37     -0.75053004601968
  38    0.00072654178867775
  39    0.00043544267495079
  40      0.76832775380712
  41    -0.0006100621305197
  42    -0.00044722821994598
  43    2.747192213643e-05
  44    0.00010373107197886
  45    -0.0019430034909409
  46    -0.00017900147698679
  47    -0.00086925555140533
  48     -0.17136893306731
  49    6.6192744186057e-05
  50    0.00011138101095057
  51    -0.066458865724232
  52    -3.2830427981373e-05
  53    6.2901541277016e-05
  54    0.00039502430692116
  55    0.00054423854393357
  56    -0.00016102109648848
  57     -0.13397688828233
  58    -0.0013914499397891
  59    -0.00069851141989868
  60      0.13140671008405
  61    3.3339796350242e-05
  62    0.00041145055921406
 Sym= A
 Ene=    0.7409202157
 Spin= Alpha
 Occup=    0.00000
   1     0.069245860799645
   2    -0.032288429413557
   3     0.014921964276122
   4    -0.0089079614400395
   5     -0.54468043465859
   6      0.10359584402577
   7     -0.01241064897633
   8    0.00025233414532515
   9     -0.40786765815963
  10     -0.25655536080354
  11    -0.0010598426035351
  12     0.023547845404204
  13     -0.14590296435328
  14      0.36863195569729
  15     -0.20376185691502
  16    -0.029821428585235
  17    0.00049034035132671
  18       -0.568186420874
  19     -0.11855829472585
  20    -0.00074314011340915
  21    -0.041037998815542
  22     -0.62150562775982
  23      0.60349927844156
  24     -0.51308274819704
  25    -0.096732980817232
  26    -0.0049259510146232
  27      0.56530866234047
  28      0.56413479227153
  29     0.006969170951306
  30      -0.2467285944411
  31      0.24844881204404
  32    -0.030806113355746
  33     -0.59190764697533
  34      0.33431015612161
  35      0.42551729044013
  36      0.22701856775995
  37    0.0013288793969852
  38     -0.54375793230204
  39      -0.7275328120926
  40    -0.0057556986266953
  41     -0.10558517698685
  42      0.32531585373532
  43     0.023403378378575
  44     -0.13575526607853
  45      0.46807896721733
  46      0.24464967313789
  47      0.14611717286142
  48    0.00085058636428536
  49      0.40808041360432
  50     0.065115312034304
  51    0.0046611706420382
  52     0.013710700372326
  53     0.077958607353364
  54     -0.61428402135062
  55     -0.18805323097541
  56    -0.037770345134275
  57    0.0017030212788592
  58      0.54427919943998
  59      0.34530650505409
  60    -0.0053832476640954
  61    -0.029287216844543
  62     0.079678471313548
 Sym= A
 Ene=    0.7825651278
 Spin= Alpha
 Occup=    0.00000
   1    -0.00068466590631692
   2     0.000806958547875
   3    -8.0609192953105e-05
   4    0.0014291689633933
   5    -0.00073666705438475
   6    0.00019079506273537
   7    0.00041123289490158
   8     -0.26497399807049
   9    0.0002180051464699
  10    -0.00068123071291807
  11      0.26309949374136
  12    -1.0174167109101e-06
  13    0.00063643064078519
  14    0.00036775851194154
  15    -0.00012462863931524
  16    8.6934871614932e-06
  17    -0.0049641949675137
  18    0.0012382936167633
  19    0.00083630516371804
  20     -0.22283626910224
  21    2.9056486275404e-05
  22    0.0058884922899135
  23    -0.0025108802890083
  24    0.0016564001189468
  25    0.00086879962554862
  26     -0.79560054889325
  27    -0.00018453594996084
  28    -0.00078153908368778
  29       1.1745213091043
  30    0.0021756343075377
  31    -1.9595576897147e-05
  32    0.00026793605935948
  33    0.0052571229304192
  34    -0.0073660522591345
  35    -0.0009348283358339
  36    -0.0023813672611863
  37      0.61641261286477
  38    0.0028775138083245
  39    0.0070947679150183
  40      -1.1113168041548
  41    0.00077902033706215
  42    -0.0019827054655956
  43    -0.0001234817039609
  44    -5.8795313200817e-05
  45    0.0013579420998672
  46    -0.0019623437365254
  47    0.0004867577957161
  48     0.038750022895004
  49    -0.00090616070624585
  50    -0.0015648898865043
  51      0.34024016307817
  52    -8.7107160775946e-06
  53    -0.0013826529881508
  54    0.0037012530588388
  55    0.00029431293169624
  56    0.0012833531816997
  57      0.30873687007937
  58    -0.0015306238980556
  59    -0.0017006045619831
  60     -0.40538050900516
  61    0.0015901973460683
  62    -0.0028537624594098
 Sym= A
 Ene=    0.8195957944
 Spin= Alpha
 Occup=    0.00000
   1    -0.059521973377389
   2     0.022976019958282
   3     0.024463155890681
   4     -0.13803195417806
   5    -0.046621551774982
   6      0.19983302164542
   7    -0.058258710011119
   8    0.0094117240490158
   9     -0.54441253588704
  10    -0.043266804040158
  11    -0.011805496349891
  12    -0.014400567778419
  13     0.073507681079412
  14     0.093016804951548
  15     -0.17570268349914
  16     -0.18572810730451
  17    0.0020531846613364
  18      0.12022751078218
  19     -0.21690992392659
  20    0.00093661303311717
  21     0.013159119824619
  22     -0.34194024566472
  23    -0.054821796383428
  24      0.25161504771995
  25     -0.43042980850722
  26    -0.0018823748258736
  27     -0.12019444331392
  28      0.68721794089248
  29    0.0029262643151325
  30      0.33442804318307
  31      0.12580196868737
  32    -0.011981763100463
  33      -0.4786348119954
  34      0.80136597013449
  35      0.15535570577906
  36     -0.17342463559733
  37    0.0013458681928399
  38     -0.16649761756285
  39      0.40590750729003
  40    -0.0020641877090163
  41     -0.47380387724413
  42     -0.16953764852601
  43    -0.0057127677716656
  44    -0.085043507370467
  45     -0.19650936790493
  46     -0.17954425536459
  47     -0.14221389594286
  48    -0.00015703462304877
  49      0.20163358073403
  50     0.032057360980159
  51    0.00034728903066848
  52    -0.0027337593399574
  53      -0.1660864538485
  54      0.23847071465341
  55      0.26600008421984
  56     0.037927467551932
  57    0.0021239937392542
  58     -0.47618141167362
  59     -0.20396199739419
  60    -0.0017516962210585
  61      0.14948618439804
  62     -0.13455253565655
 Sym= A
 Ene=    0.8255371723
 Spin= Alpha
 Occup=    0.00000
   1      0.18668854030494
   2    -0.0029412689791286
   3    0.0024147020568565
   4      0.14226887787128
   5     -0.48624786599202
   6      0.24733537268807
   7    -0.061034699822596
   8    0.0050497631281414
   9     -0.42099065877354
  10     -0.03351470827858
  11    -0.0062904889325017
  12     0.017211496745982
  13     0.061623504168898
  14      0.57975481223582
  15     -0.18959448934456
  16      0.12413368586071
  17    0.0011451378647457
  18     -0.15249700674956
  19     -0.26012362065915
  20    0.0010237576219077
  21     -0.02744944248099
  22       0.7543128526035
  23     -0.98678168955759
  24      -0.3889581160934
  25      0.21421069520973
  26    0.0012305504705921
  27      0.66832124480011
  28     0.077775412067438
  29    -0.0017254783054186
  30      0.26939504058752
  31      0.28988623704151
  32    -0.026880059891262
  33      0.75416319269344
  34       -1.111461841252
  35      0.56171433142425
  36     -0.39312449609422
  37    -0.0020944709214345
  38     -0.65395425972169
  39      0.39184989430417
  40    0.0020979835084068
  41      0.03490933694446
  42       0.1741285196202
  43      0.01961101775313
  44     0.030854469140388
  45      0.53017620339392
  46     0.075153514967066
  47      -0.2238990364748
  48    0.00021802754763722
  49       0.1504261660677
  50      0.18712092913512
  51    0.0010133799050732
  52    -0.0084561844595037
  53      0.18180326697637
  54     -0.40279074598399
  55     -0.11952052410955
  56     0.033759932542328
  57    0.00057428015793847
  58      0.11077170020571
  59    -0.050880322147269
  60    -0.002016548229517
  61      0.24114845264636
  62    -0.023800889998771
 Sym= A
 Ene=    0.9033479531
 Spin= Alpha
 Occup=    0.00000
   1      0.23493347041454
   2     0.095077981519103
   3    -0.0078316089819823
   4      0.15902657828756
   5     0.083053161465355
   6     0.084095334072587
   7     0.047737176101467
   8    0.0030012217309312
   9      0.11110521301289
  10      0.21874488624446
  11    -0.0033447047015985
  12    -0.0021948195685505
  13       0.1978109221935
  14      0.21668762698261
  15    -0.036488892205006
  16      0.11747370297725
  17    0.00083821462709901
  18      0.51336797601114
  19    -0.056691274120107
  20    -0.00010568427501553
  21     0.050764903519946
  22      0.52530996933617
  23      -2.0702458072065
  24     -0.74616359197259
  25    -0.026967490100381
  26    -0.00030319159403559
  27      0.19834233247272
  28      -0.5202901204165
  29    0.00040857336793666
  30      0.33520648168841
  31       -0.187234409369
  32    -0.050937034563884
  33      -0.4728909786353
  34       1.9864391133508
  35     -0.72564797769736
  36    -0.056527254524808
  37    -0.00072592968098192
  38      0.12779931707205
  39     -0.44679645778527
  40    0.00049620944622286
  41     -0.30030299103285
  42      0.14846906277178
  43    0.0030314191396209
  44     -0.21750171364851
  45     -0.15407443470114
  46    -0.043826330981984
  47      0.11472097266548
  48    0.00032156198063193
  49      0.49105053454622
  50    -0.031750136674661
  51    0.0006589820354564
  52     0.009927615232193
  53     -0.20487998675372
  54    -0.045391690928557
  55     0.048038522487869
  56     0.095651903870451
  57    0.0018742049224384
  58      0.13081339753306
  59      0.13670752326986
  60    -0.0026626467737465
  61     -0.21462879141771
  62    -0.073718299181108
 Sym= A
 Ene=     0.929422895
 Spin= Alpha
 Occup=    0.00000
   1    -0.0085641098210754
   2    0.0017636836668576
   3    -0.00057330824608951
   4    0.0065034708094137
   5    -0.0029467492971444
   6    -0.0043720415819196
   7     0.005642141646908
   8      0.39348626138732
   9    0.0061076739103814
  10    -0.012871037683593
  11     -0.47256752357257
  12    0.00024480488735917
  13    -0.0021577926857715
  14    -0.0031433666616248
  15    -0.00059442734473991
  16    -0.0015701372923428
  17      0.06536787769125
  18    -0.0013274521060582
  19    0.0088122173424303
  20      0.07271484592607
  21    -0.00035819831947527
  22    0.0031492814273907
  23     0.015406677617208
  24    0.0051846845362997
  25    -0.0015361485154272
  26     0.023976458276522
  27    -0.0035677462006593
  28    0.0062149284936677
  29      -0.1390406998238
  30    -0.0050480578857915
  31    0.0036595361965914
  32    0.0011018147678946
  33    0.0077570241263952
  34    -0.0094969149076911
  35    -0.00040571632132514
  36    -0.0001108550187946
  37     -0.33580653503214
  38     0.014748832704737
  39    0.0042800672517163
  40      0.48005410069593
  41    0.0075459653376494
  42    -0.006332370981857
  43    0.00052377855578499
  44    -0.0063941806058848
  45    -0.001797283135053
  46    -0.0073339014241135
  47     0.016323589140912
  48      0.31427471466854
  49    0.0050156872479547
  50     -0.02065789359259
  51      -0.1197755809538
  52    0.00064453494552319
  53    -0.0089926797004087
  54    0.0099092865950584
  55    -0.0076262738239644
  56    0.0098352904039092
  57      0.77773557830644
  58    0.0043535015635041
  59    -0.011951335079234
  60     -0.94097826694895
  61    0.0043414444129242
  62    0.00026288585256346
 Sym= A
 Ene=    0.9521547441
 Spin= Alpha
 Occup=    0.00000
   1      0.04295812052451
   2    -0.006365056987758
   3    0.0017782191005046
   4    0.00068806827841911
   5    -0.024339994598707
   6     0.018319510348278
   7    -0.019353771698529
   8    0.00089097865330102
   9    -0.014213627252128
  10     0.023118361805175
  11    -0.0040177809012347
  12    0.0025667888920894
  13    0.0015618608157449
  14       0.1018757393499
  15     0.020655655517185
  16     -0.03867178294023
  17     -0.01178447623805
  18    -0.023910947279401
  19     0.069707751179022
  20     0.015474892306053
  21    0.0087894798097351
  22    -0.073093260228375
  23    -0.014958643463141
  24     -0.10740562916635
  25      0.14835609478737
  26    0.00080258738163137
  27     0.055083228421282
  28     -0.35804178262312
  29    -0.011514017991066
  30     0.045727174673785
  31     -0.20550481849569
  32    -0.023867816839434
  33     -0.14604084880404
  34     -0.11532758831909
  35    -0.067737762945277
  36     0.053677465182533
  37    -0.0063451217071495
  38     -0.24738553864183
  39    -0.0034486115334427
  40     0.023537047583942
  41     -0.17666405683542
  42      0.14370564129456
  43    -0.026073094745467
  44       0.2919939384857
  45     0.082494933210075
  46      0.33149748098924
  47     -0.59661506912905
  48     0.023082255496381
  49     -0.42576112968885
  50      0.71188393813629
  51    -0.032890212357169
  52    -0.025679576370675
  53      0.35428950010414
  54     -0.18283936964847
  55      0.30308909159006
  56     -0.47106991391827
  57     0.022541619725368
  58     -0.15625830356108
  59      0.63318417211853
  60    -0.013543985555112
  61     -0.18725114902796
  62     -0.17107060685719
 Sym= A
 Ene=    0.9585735875
 Spin= Alpha
 Occup=    0.00000
   1    -0.0096112640032082
   2    0.00053638680640162
   3    -0.00088978431744712
   4     0.012250605600366
   5     -0.00752572516162
   6    -0.0065975481998769
   7     0.010110446732611
   8      0.61126170731776
   9    0.0080669493149967
  10      -0.0211012426911
  11     -0.59437614415197
  12    0.00030790883803549
  13    -8.5117977138058e-05
  14     0.002934843596444
  15    -0.0024993834138392
  16    -0.00022722882699889
  17      0.54899676800163
  18    9.1709151024634e-05
  19     0.010747306050077
  20     -0.58715035503351
  21    -5.2634798156034e-05
  22    0.0008566984569766
  23     0.010838565131218
  24    -0.0018203544841071
  25    0.0048575382934277
  26     -0.23487300245294
  27     0.001625204139302
  28    -0.0089206893226222
  29      0.65226455041015
  30    -0.0045932915498485
  31    -0.0028858431680634
  32    -0.00019361934781339
  33    0.0011108136779195
  34    -0.014911748810118
  35    -0.0034911537695236
  36    0.0018052237915962
  37      0.14827474126128
  38    0.0044023539196924
  39    0.0028397750596276
  40     -0.57829667953418
  41    -0.00080072679449369
  42    0.00059928321585329
  43    -0.00048282510347799
  44    0.0065799860985059
  45    0.0017648040519656
  46    0.0083076310352665
  47    -0.013088741696197
  48      -0.4795286804959
  49    -0.014137747518897
  50     0.013865835424624
  51      0.68515328406174
  52    -0.00061253721221797
  53    0.0084514560412269
  54    -0.0016107378110689
  55     0.004238423369703
  56     -0.01125270286459
  57     -0.15536875341779
  58    -0.00054934824018515
  59     0.016221982066264
  60    0.0073707394471439
  61    -0.0068628138368829
  62    -0.0038622470441499
 Sym= A
 Ene=    0.9787221309
 Spin= Alpha
 Occup=    0.00000
   1     0.096115972107091
   2      0.17946449441793
   3     0.021430800194711
   4     -0.28907773474999
   5      0.12010791857542
   6      0.26500040575256
   7     -0.41953775415894
   8    0.0038277830052254
   9      -0.1213616536831
  10      0.46979836053461
  11    -0.0023020327514621
  12     0.028877012893981
  13     -0.31559163845079
  14     -0.14146170067632
  15      0.32303956290045
  16     -0.64990257628333
  17    0.0078599016331285
  18     -0.50084405463485
  19      0.82910712187759
  20    -0.0093427182270634
  21     0.019759430450178
  22       0.1211577828156
  23      0.45711337424367
  24     0.016195656149556
  25     0.055411515111512
  26    -0.00084631893311526
  27     -0.27816581288395
  28      0.15178943668334
  29    0.0049619582718861
  30      0.16979770685189
  31     -0.10654057344429
  32    -0.0028287201190523
  33      0.12833909991884
  34     -0.27081027376938
  35    -0.074793216311677
  36      0.16746116731074
  37    -0.00075741590466681
  38      0.21296938883176
  39     -0.32479070321443
  40    -0.0038502911361842
  41    -0.012223895158429
  42      0.18135493802806
  43    0.0074579476598759
  44    -0.084636199618337
  45    -0.0014106013285709
  46    -0.066742496380221
  47    -0.083345941794125
  48    -0.0066561789279231
  49    -0.037870249161782
  50      0.11018676963499
  51       0.0111497554065
  52    -0.0038957377173523
  53    -0.045751911619637
  54     0.023861045340993
  55     -0.20734451037814
  56      0.09636087300771
  57    0.0025572979677744
  58      0.19478992701617
  59     -0.13429910130942
  60    -0.0064131954244972
  61     -0.14955312436507
  62      0.14363985709484
 Sym= A
 Ene=    0.9819592165
 Spin= Alpha
 Occup=    0.00000
   1     -0.21077743605014
   2     0.071976414871505
   3    -0.010932397072475
   4      0.07635238174363
   5     -0.10783755704448
   6      0.14909116708452
   7     0.052302295040477
   8    0.0019349999096136
   9     -0.22483803054754
  10     -0.11689577065099
  11    -0.0037207250308327
  12    0.0013302844715865
  13     0.030163735964799
  14     0.026454891332715
  15    -0.033872606296997
  16      0.25955758830447
  17    -0.0038400293396355
  18     0.056928965978353
  19     -0.31788556691391
  20    0.0051748794590613
  21    -0.011598430711791
  22     -0.22149604764094
  23      0.62848199360962
  24      0.14193652442502
  25      0.03059671666529
  26    -0.0015117313763941
  27     0.098493509584689
  28      0.14495713690525
  29    0.00023593330438648
  30      0.05621186926651
  31    -0.034753169015479
  32    -0.0028117344339348
  33     -0.20188423194424
  34     -0.35387343872764
  35    -0.006181501856578
  36    -0.082146834637361
  37    0.0012722143249995
  38      0.24944451059466
  39      0.42251299665453
  40    0.0017545417863318
  41    -0.021333755791888
  42      -0.2523669073509
  43     0.021749083305285
  44     -0.15734337473369
  45      0.50860324392477
  46     -0.18893765665027
  47     -0.55241120008546
  48    0.0057556804370489
  49     -0.18425916678862
  50      0.65184039675979
  51       -0.010194232594
  52     -0.01960398014581
  53    -0.029762572487974
  54     -0.14118175149727
  55     -0.71557712416964
  56      0.20229460277415
  57    -0.0007907957929477
  58      0.78138717334207
  59     -0.27178617647083
  60    0.0050547722221853
  61     -0.50338868297186
  62      0.40305133377214
 Sym= A
 Ene=     1.004824105
 Spin= Alpha
 Occup=    0.00000
   1    0.0043070624238724
   2    -0.0050863406132785
   3    -2.5527383426396e-05
   4    0.0050010705717771
   5    -0.0021324434036053
   6    -0.013754859727288
   7    0.0051715533044975
   8      0.51196022270961
   9     0.016764320324663
  10    -0.012274930285583
  11     -0.72852601082247
  12    2.183692707735e-05
  13    -0.00011394724870921
  14    -0.011833919188171
  15    -0.00093332020210529
  16    -0.015679160881917
  17     -0.28854735237154
  18    -0.010768955956946
  19     0.023696794630444
  20      0.45103118114117
  21    8.5018965203288e-05
  22    0.0080526921517821
  23    0.0074103461758593
  24    -0.0011095045404549
  25    -0.0035649879854397
  26     -0.28339983140622
  27    0.0002261215093754
  28      0.01985580221659
  29       0.2951412408796
  30    -0.0022291722561376
  31     0.012903293039701
  32    0.00017755172154419
  33     0.010232687652787
  34    -0.019994522206046
  35    0.0018743469486823
  36    0.0055708256479573
  37       0.2005576234459
  38    0.0090134753226354
  39    -0.014991588773875
  40    -0.037402612992576
  41    0.00092748868684388
  42    0.0093235969132787
  43    0.00035997273030571
  44    -0.002644817269182
  45    -0.0071658798077427
  46    -0.0029383340409243
  47     0.006864392193878
  48      0.60628017271335
  49    0.0051731816985288
  50    -0.0076421064712401
  51      -1.0216937934935
  52    0.0002395933746401
  53    -0.002201791687395
  54    -0.0010647983455551
  55    -0.0024762108045078
  56    0.0067164620808698
  57     -0.34023730825547
  58    -0.00020251945242504
  59    -0.011044595352935
  60      0.75354283169715
  61    0.0014403163805975
  62    0.0068927935995582
 Sym= A
 Ene=     1.015726561
 Spin= Alpha
 Occup=    0.00000
   1      0.62007791068463
   2     -0.48303125328767
   3     0.023376588330559
   4    0.0026440615248879
   5     0.083348016042333
   6     -0.76429951902703
   7      0.22942681967213
   8    -0.010482238413897
   9      0.75350396229219
  10     -0.22913834336305
  11     0.014354429094347
  12    -0.032435051112439
  13      0.25551713084663
  14     -0.60062866947706
  15     -0.21161647081321
  16     -0.44049862724253
  17    0.0020617263711599
  18      -0.2526419012336
  19      0.38750898941669
  20    -0.0044254094305582
  21    -0.0015465369688855
  22     0.017276438759416
  23      0.68816918337241
  24     0.032008691040411
  25    -0.083333621393001
  26    0.0056245521130492
  27      0.41540666317944
  28      0.64168092716762
  29    -0.0078341943222442
  30     0.076875568260364
  31      0.32370927705821
  32     0.002036309091806
  33      0.04515555638661
  34     -0.98868432635061
  35      0.15462075933195
  36     0.050007496692762
  37    -0.0031566671776485
  38      0.10304532742597
  39      0.23522070913248
  40     0.001921538507725
  41     -0.14527730328067
  42     0.065504607787946
  43    -0.00076404262914088
  44    -0.021138212354768
  45      0.26373454547547
  46    -0.089474888778109
  47     -0.21615707951847
  48    -0.0097218897516129
  49    -0.080677585327041
  50      0.34067835787111
  51     0.015843771541043
  52    -0.0023424995362719
  53    -0.047681628509369
  54    -0.060021340236705
  55     -0.16854786211429
  56      0.10350954707124
  57    0.0057723715042975
  58      0.18007693424696
  59     -0.25136905803883
  60    -0.012089689230186
  61    -0.022829116637748
  62      0.11187576369868
 Sym= A
 Ene=     1.051737876
 Spin= Alpha
 Occup=    0.00000
   1     0.026586987821266
   2     -0.19333758426502
   3     0.019251837507674
   4     -0.21901705536368
   5       0.7562059597404
   6     -0.03375858857704
   7      0.11321908824006
   8    0.0013136142533287
   9      0.11914666318882
  10     -0.13907597229709
  11    -0.0035182577149082
  12    0.0074325620276857
  13    -0.080958391658699
  14      0.57370484012291
  15     -0.22457817696024
  16     -0.20048492872721
  17    -0.0048885194299433
  18      0.82081901151207
  19       0.4775039586139
  20    0.0073514063026794
  21      0.01677628570508
  22     -0.46830053874563
  23       1.3678669379372
  24     0.049811088858081
  25      0.75417750146206
  26    0.00017888865552489
  27      0.35152414261472
  28      -2.8718052060571
  29     -0.00168104112223
  30      0.20061772067977
  31      -2.0003207779604
  32     0.017737985804183
  33     -0.40152057709435
  34       1.0586738583617
  35    0.0039116275994849
  36     -0.73824346615395
  37    0.0007513475932968
  38     -0.33085734334753
  39        2.954177261198
  40    -0.0017021765264414
  41       0.1140277995916
  42      -1.9201395388187
  43     0.011874101144223
  44     -0.12859382568381
  45      0.69742637769071
  46      0.18497573266539
  47      0.15995149015896
  48    0.00019103992096256
  49      -0.8606469020657
  50     -0.46512794506897
  51    0.0012319792374357
  52     0.013652738023581
  53     -0.20794088094521
  54      0.77053119674105
  55    -0.036907649337026
  56     -0.10183213270826
  57    -0.0026841831104308
  58    -0.078012635615996
  59      0.14598895684388
  60    0.0015788702559771
  61    -0.046015641171548
  62     -0.16222468667784
 Sym= A
 Ene=     1.077379945
 Spin= Alpha
 Occup=    0.00000
   1    -0.016016495098552
   2      0.21608255662988
   3    -0.0071321117250656
   4     0.035690995518762
   5     -0.54734971166168
   6     -0.14543975591888
   7     -0.22044237832946
   8    0.0046523944321802
   9     0.079176127456064
  10      0.19546494047441
  11    -0.010956892743118
  12    -0.0020937787836303
  13     -0.19344141694114
  14     0.060097531761456
  15     0.067258993834835
  16    -0.011859093164469
  17    -0.012743988728622
  18     -0.63739594663514
  19      -0.3677467924042
  20      0.01987846855133
  21    -0.010869054155468
  22      0.38564994382895
  23      0.67113443810191
  24    -0.074827380389075
  25     -0.72733770048904
  26        0.001411022328
  27      0.92420553585002
  28       1.9659297797645
  29    -0.0052786447665109
  30      -0.2934323985034
  31       1.4890814059986
  32     0.012705985693216
  33     -0.15327526641059
  34     -0.76438382126044
  35     -0.11734008243822
  36     -0.67866416864109
  37    0.0019911983773431
  38       1.2006589225899
  39       1.8522904579368
  40    -0.0056071847551337
  41      0.23893398341345
  42      -1.3779386075562
  43     0.017514157943009
  44      0.09816137811601
  45     -0.13507909937661
  46     0.098241183679167
  47      0.10728288163086
  48    -0.0069928970381672
  49     -0.71569956348945
  50     -0.74377011634152
  51     0.012580841981235
  52    -0.0012485041520467
  53    -0.0059375543356763
  54      0.76843546313756
  55     -0.18651825200973
  56     -0.32920092091388
  57    0.00043708881223484
  58     0.044830306506459
  59      0.52976363892487
  60    -0.0047682830681645
  61     -0.16312625257304
  62     -0.30688695959958
 Sym= A
 Ene=     1.079341151
 Spin= Alpha
 Occup=    0.00000
   1    -0.0059796861212715
   2    -0.0015001096600995
   3    -0.00026264717393396
   4    0.0028342708478045
   5    0.0076346838249472
   6     0.002785126759848
   7    0.0048084527074339
   8      0.28794131703594
   9    -0.00014752851168594
  10    -0.0096819407839305
  11     -0.67628250804723
  12    0.00035803434784032
  13    0.0013633741869148
  14    -0.004302434387309
  15    -0.00079724815950878
  16    -0.0018060901009161
  17     -0.79755873403004
  18    0.0082068033315439
  19     0.012919780416857
  20        1.240636163589
  21    0.0001350322457894
  22    0.00077196766986222
  23    -0.018387287532644
  24      0.00167604632267
  25     0.008668206321675
  26     0.096161860756099
  27    -0.021761676597628
  28    -0.019297921227121
  29     -0.34486788007646
  30    0.0031919774814617
  31    -0.015304912119195
  32    -0.00025038159237047
  33    0.0091185784893992
  34    0.0023901233774891
  35    0.00051388647827059
  36     0.016676024676517
  37      0.12778394622795
  38    -0.013881290428766
  39    -0.047028763670901
  40     -0.35100920578535
  41    -0.0059184121721142
  42     0.035176197117639
  43    -0.00020371570630977
  44    -0.0026117208780703
  45    0.00036116173468601
  46    -0.0012406161088543
  47    -0.0023954439284094
  48     -0.49599253632146
  49     0.012931309400004
  50       0.0111049437523
  51      0.84820429197121
  52    -0.00026324955857794
  53    0.0021631713076261
  54    -0.012870577908753
  55     0.003089791255627
  56    0.0029551040865481
  57     0.089699554724491
  58    -0.00058326787082707
  59    -0.0016232279828022
  60     -0.36299955647036
  61    -0.001048482059319
  62    0.0031778767965976
 Sym= A
 Ene=     1.114525878
 Spin= Alpha
 Occup=    0.00000
   1    -0.015333980107738
   2      0.23859853985349
   3    -0.010313319065666
   4      0.17236554225518
   5     -0.70224458969353
   6    0.00051311714018475
   7     -0.11134480423498
   8    0.0047302840284581
   9    -0.081657416715278
  10     0.086180993012553
  11    -0.0072807909474432
  12    -0.0033775061683205
  13    -0.011540650188139
  14      0.32144668044361
  15      0.21681485347842
  16       0.0496782690782
  17    -0.0033504168025923
  18     -0.59464302083734
  19     -0.21293779157002
  20    0.0058636686771768
  21    -0.0027300951962339
  22     -0.36523269848871
  23      0.91785355635931
  24      -0.2519955922372
  25    0.0094308040966398
  26    -0.0008713291316698
  27      0.74501929476506
  28      0.17405547100713
  29    0.00086107848467441
  30      -0.1176610882671
  31      0.12320606782715
  32    0.0029634681065818
  33     -0.57938512224688
  34    -0.0089110082801149
  35     -0.20536465826756
  36     -0.21165309658873
  37    0.0009655945435407
  38      0.29999079225775
  39      0.37524123257088
  40    -0.0028251555458264
  41      0.36060961745857
  42     -0.48588315434149
  43    -0.039824124257027
  44      0.37150202534209
  45     -0.29865187214221
  46    -0.032680285682185
  47     -0.26973125834832
  48    -0.0013916568557616
  49     0.026324426109444
  50      0.81039702690281
  51    0.0029883997145429
  52     0.050255451670131
  53     -0.39569156799756
  54      0.09443719251967
  55    -0.039268964488917
  56     0.030957842636654
  57    -0.00016020601248064
  58      0.31852956537387
  59     -0.69465870268497
  60    -0.00082917663071133
  61        0.909744639452
  62     -0.47278265632066
 Sym= A
 Ene=     1.179510696
 Spin= Alpha
 Occup=    0.00000
   1    -0.093510107522041
   2      0.30731640720358
   3    -0.0056399423263086
   4      0.03510039219939
   5     -0.32425871550755
   6    -0.097133723250545
   7     -0.15573666209104
   8    0.00083175224474393
   9     0.092150224882308
  10      0.18612372969361
  11    -0.0011287961444643
  12    -0.0021066089932193
  13     -0.15683342965052
  14      0.59022694628221
  15     0.015693398088392
  16     0.022536240514929
  17    -0.00088409529862664
  18     -0.10176494739619
  19     -0.26711547884194
  20    0.0011861668848516
  21    -0.0025442973460248
  22     -0.29499043986774
  23      0.94255677885676
  24     -0.22935920607745
  25    -0.068155466499399
  26    8.8041609110717e-05
  27       1.1514994050471
  28     -0.33570097490565
  29    -0.00039136651387167
  30     -0.21307158203276
  31     -0.10752150835905
  32    -0.00020454092267199
  33      0.11667728638576
  34      -1.3828611481417
  35     0.015880478451393
  36     -0.35334477536687
  37    0.00067177358725206
  38     -0.42418667579209
  39       1.7813918336291
  40    -0.00022325915412253
  41      0.16162181860058
  42       -1.147751663429
  43    -0.030257873213745
  44      0.23643897945482
  45     -0.19340441052456
  46      0.36032672005006
  47     -0.04531582126788
  48    -0.0029135698118864
  49      -1.3961712875923
  50      0.25865223514279
  51    0.0019934082025276
  52     -0.01239207781614
  53      0.28083784582834
  54     0.041815468281362
  55      0.41345984774678
  56      0.78866656438568
  57    0.0030554368900423
  58     -0.83149989465233
  59      -1.5635525913741
  60    -0.0021441436703152
  61     -0.50033423298307
  62       1.5045541555323
 Sym= A
 Ene=     1.203209113
 Spin= Alpha
 Occup=    0.00000
   1      0.64499172187743
   2      -1.4557618619789
   3     0.019108971409549
   4     -0.26421920709895
   5     -0.28546883487142
   6      0.43018058463535
   7      0.76026427153949
   8    0.0012927373751473
   9     -0.92694542880454
  10      -1.3964718779239
  11    -0.0016785474321007
  12      0.02362569164908
  13     -0.17585202621833
  14      0.22023935633989
  15       0.4114277266292
  16    0.0094322105071797
  17    -0.00050209216774842
  18      -1.5405506477431
  19     0.070671222268975
  20    0.00085668703490902
  21    0.0013724391953473
  22     -0.41034569668431
  23        1.873732619787
  24    -0.0027489250034631
  25     -0.27964723221564
  26    -0.00029468054429867
  27     -0.26795536524181
  28       1.6670005000731
  29    0.00042709530179168
  30    -0.065135226793118
  31      0.90849522549315
  32    0.0016122969118375
  33       0.2529000374551
  34      -1.0223026852565
  35     -0.18134602557882
  36     -0.13006578407297
  37    0.00031538195336958
  38       1.0164156315581
  39     -0.12774158038577
  40    -0.0005410135391334
  41      0.24328961687689
  42    -0.059026948004371
  43    -0.0041423113685608
  44      0.23844665361744
  45     -0.64144077621972
  46     0.021849454780027
  47     0.031206378580765
  48    -0.00076729111011277
  49     -0.11378277675141
  50      -0.2223180544378
  51    0.0007226505033746
  52    -0.0021771227517751
  53      0.15053050879431
  54    -0.004306780849596
  55    0.0020410210704602
  56      0.05023525778543
  57    0.00072685738912553
  58    -0.043290362415462
  59     -0.12847760910448
  60    -0.00057590846878459
  61    -0.048514782759403
  62      0.10932630681936
 Sym= A
 Ene=     1.243256679
 Spin= Alpha
 Occup=    0.00000
   1     -0.24308666816381
   2    0.0044359050706469
   3    -0.0046881693529493
   4     -0.45197617362978
   5        0.808996335832
   6    -0.087079973333602
   7     0.071039209971718
   8    -0.0028765683189852
   9      0.36462394165061
  10     -0.21059215334291
  11    0.0035265454450459
  12    0.0092512945713491
  13     -0.41839494399042
  14      0.39587128398873
  15     -0.10592923102086
  16     0.078274121437684
  17    0.00085587564504349
  18      0.27362088850238
  19     -0.18296017436032
  20    -0.0014385348718467
  21    -0.0012077655643193
  22     -0.23190140240485
  23       2.8672104210628
  24     -0.11130226584328
  25     -0.14084568772203
  26    0.00070760285606824
  27       1.8995341813596
  28      0.44787679623348
  29    -0.001076394351307
  30    -0.056718658972154
  31    -0.097676369795052
  32    -0.0043830042189923
  33       1.0991045080963
  34      -4.7829463531301
  35     -0.27019829988635
  36     0.036647629706937
  37    -0.0006607434507357
  38       1.4309121542392
  39       2.1705364950837
  40    0.0010468950916846
  41     -0.68434763647111
  42      0.16289678197086
  43    -0.0059531767918042
  44     0.078095249613004
  45    -0.050336663248975
  46      0.47974862072122
  47     0.025345227020244
  48    0.0013408009265634
  49      -2.3531032073487
  50     -0.16835502756774
  51    -0.0011065017683858
  52      0.03245861745962
  53     -0.49007658505111
  54       2.0291400588034
  55     -0.10439579785459
  56     0.059458783622227
  57    -0.0014209741193661
  58      -0.2426387708052
  59     -0.75183377220039
  60    0.00097851735781787
  61      0.34749935330214
  62     -0.46851717914872
 Sym= A
 Ene=     1.250057348
 Spin= Alpha
 Occup=    0.00000
   1      0.16304052482264
   2     -0.61111954964942
   3      0.01878133115765
   4     -0.35955427791423
   5       1.8188999408609
   6      0.16050373524528
   7      0.10190224384379
   8    -0.001988768300985
   9      0.14269713343427
  10      0.16820808393685
  11    0.0025129393925005
  12    0.0089990377519547
  13    0.0063556399473487
  14      0.19413620552035
  15     -0.37346659938601
  16     -0.14584539962267
  17    0.00053559769557752
  18       1.9498259172405
  19      0.50993505853325
  20    -0.00099500764017013
  21    -0.0030655117885682
  22        1.100772416567
  23      -4.6169486464896
  24      0.12737692223627
  25     -0.02904119077587
  26    0.00055034248540926
  27      -1.4036844957989
  28      -2.1764622107463
  29    -0.00087877804026642
  30     -0.80884958889316
  31      0.27179381147874
  32    -6.1542661084714e-05
  33      -0.3721997648615
  34       2.9082852236055
  35     0.014422207282274
  36       0.0756285027125
  37    -0.00028266350880129
  38      -1.9756600711671
  39     -0.48550635020029
  40    0.00084335178131861
  41      0.18024438404635
  42     -0.29639404503315
  43    -0.0075770813258325
  44     -0.35492512679744
  45      0.34433025166438
  46      0.11898649217732
  47     -0.20807915390602
  48    0.00025815655634499
  49     -0.30952969603813
  50      0.60826247158354
  51    -0.00060333778023068
  52    0.0094048742576617
  53     -0.54776874840303
  54      0.68429475122979
  55       0.1432387589056
  56     0.065214171061659
  57    -0.00016875963126203
  58     -0.35801987719536
  59      -0.2607160015624
  60    0.00032181632364139
  61    -0.025265080232835
  62      0.13440788274353
 Sym= A
 Ene=     1.385601634
 Spin= Alpha
 Occup=    0.00000
   1      0.17352081482882
   2      0.38930820173295
   3    -0.00088710200740489
   4       0.4022522213704
   5      -0.7524052501441
   6     0.048343804738039
   7     -0.13840755310244
   8    0.00081654966206829
   9     -0.17325967982884
  10      0.42585460959249
  11    -0.00050498035623592
  12    -0.0018569317639347
  13     0.088883171091111
  14    -0.084890962668019
  15    -0.053322604586766
  16    0.0053591689469535
  17    -7.5702135171022e-05
  18    -0.060998629906577
  19     -0.16071085174105
  20    0.00014639581792289
  21    -0.020260827922764
  22      -1.0595621478757
  23       2.7758798638108
  24     -0.26401245199636
  25    -0.086063661300289
  26    -0.00025720793388644
  27       1.0786528601619
  28      0.17059500894349
  29    0.00021883344895528
  30     -0.18089705850279
  31     -0.30939529512911
  32     0.027450332590688
  33       1.1726137708411
  34      -3.6867208588689
  35     -0.05525663108233
  36     -0.12176144282412
  37    -8.772144549117e-05
  38    -0.014119397837978
  39      0.27681887740523
  40    -0.00026776007515221
  41      0.28531245172958
  42      0.44253873103423
  43    -0.0060056901588542
  44     -0.47522927395112
  45       1.2471455736695
  46     -0.21382449317012
  47     -0.14211077927201
  48    0.00039597095492671
  49      0.34285864799772
  50      0.39227478556312
  51    0.00011250950867411
  52    -0.0012360033269518
  53     -0.95135729202592
  54       1.0263240781613
  55      0.21148624690575
  56     -0.20949269389326
  57    -0.00046149003040813
  58      -0.3863389425823
  59      0.81409980126882
  60    7.6649128380885e-05
  61     -0.36823149634368
  62     -0.50849485563984
 Sym= A
 Ene=     1.401856706
 Spin= Alpha
 Occup=    0.00000
   1     -0.50428217980155
   2     -0.31349468493632
   3    -0.011910309659536
   4     -0.86104936159115
   5      0.61081199529132
   6     -0.27154895050104
   7      0.22764128196428
   8    -0.0021572714888867
   9      0.41033795160837
  10      -1.0132479499336
  11    0.0021333693962366
  12    0.0014446299434615
  13     -0.68190515635185
  14       1.4027876532601
  15      0.20843399852291
  16       0.1503092929109
  17    0.00034943382568405
  18      -0.7907841432346
  19      -0.5153837011122
  20    -0.00056220592687312
  21     0.019798296974219
  22      0.47144299494146
  23      -1.8886361764466
  24     -0.23738659946428
  25     0.016852693975656
  26    0.0006018013737292
  27      0.99052739347794
  28      0.70193109001092
  29    -0.00089672206380386
  30      0.44985629692034
  31      0.52275596579257
  32    0.0056403442118106
  33     -0.20559954560494
  34     -0.33868978404303
  35       0.2659138240778
  36     0.022101805760438
  37    -0.00024462428858872
  38       -1.061792149184
  39     -0.66906852888885
  40    0.00071263118084484
  41      0.34011609117785
  42      0.21906138788895
  43    -0.0037998322137473
  44     -0.45020507709686
  45      0.96107814417056
  46     -0.09450661488246
  47     -0.15247042476131
  48    0.00031395204733465
  49       0.5606714332059
  50      0.59165745238479
  51    -0.00045344209366514
  52    -0.0030740100860924
  53     -0.42468131617028
  54    -0.022302870324151
  55      0.17522664416784
  56    -0.057342246791008
  57    -0.00036452772035158
  58     -0.16017906820653
  59      0.35508728268117
  60    0.00031496825480318
  61     -0.18053034748147
  62    -0.0039815553387006
 Sym= A
 Ene=     1.447458711
 Spin= Alpha
 Occup=    0.00000
   1     -0.15165132433278
   2     -0.16461385342323
   3    -0.0073824818199306
   4      -0.2277714987807
   5    -0.039982857035318
   6    -0.0032383435949871
   7     0.074786547135943
   8    0.00012884270575346
   9    -0.016433075884885
  10     -0.43596284275902
  11    -0.00084827654321257
  12    -0.016569133907192
  13      0.11463069399004
  14       1.3648060445692
  15      0.43066810432269
  16     0.025357493739793
  17    -5.7438964324921e-05
  18     -0.45196905701435
  19     -0.16785261570709
  20    0.00021027324669048
  21    -0.004770899979273
  22      0.17621202223085
  23     -0.13740080711461
  24     -0.18983906157398
  25      0.22028833761247
  26    -1.8745207240168e-06
  27       1.3018956828477
  28      -2.4109013738083
  29    0.00041536886240857
  30      -0.7311736461187
  31     -0.60673608361271
  32    -0.010606050036331
  33     0.018524063621577
  34      0.54403484994599
  35      0.19991576023921
  36     -0.20151943711933
  37    0.00012080507207269
  38      -1.2198558726627
  39        2.287076159156
  40    -0.00021853092707897
  41     -0.78945629614564
  42     -0.63907415496232
  43    -0.013210400841216
  44       0.2421130068023
  45       1.1108778342053
  46     -0.45217361214496
  47     0.012504145270849
  48    -0.00031581339961437
  49      0.69670696794802
  50     0.050824868146993
  51    0.00011903237591161
  52    -0.010458987015416
  53    -0.024814103182082
  54     -0.39009894730164
  55    -0.028956652408569
  56    -0.061791826475961
  57    0.00033837717866801
  58      0.13288582489422
  59      0.46636936045273
  60    -0.00013419642331298
  61     -0.14240522857985
  62     -0.11295293347989
 Sym= A
 Ene=     1.538771513
 Spin= Alpha
 Occup=    0.00000
   1     -0.24448482009223
   2      0.15554003929402
   3    -0.0079613020648484
   4     -0.69797509567898
   5       2.9292584075335
   6    -0.092553298604098
   7     -0.02651908349081
   8    -0.0020499170887746
   9       1.2380878305606
  10      0.54022898084481
  11    0.0021554269547032
  12     0.010209209229888
  13     -0.29150276455175
  14     -0.54355878209142
  15     -0.51193328722006
  16     -0.10273510862437
  17    0.00026018319911607
  18       2.5268171230291
  19       0.4377156420408
  20    -0.00050730990633328
  21    -0.014221375245578
  22     -0.44280723655673
  23       1.0735474694524
  24     -0.40749355968277
  25     -0.11123754871908
  26    0.00061232611174119
  27       1.9219094420338
  28     -0.14850600040906
  29    -0.0010611229440372
  30     -0.17021172818062
  31    -0.031283709766045
  32     0.013066198222114
  33      0.47280679980964
  34     -0.83514696608988
  35     -0.42634743153852
  36    -0.077376871707052
  37    -1.6934745790989e-05
  38       2.3088395574761
  39     -0.53937885953229
  40    0.00089875035597005
  41      0.23623956440245
  42      0.10155443894269
  43    -0.00090015724606212
  44      0.37583118061918
  45     0.028296342615497
  46     -0.46985621110807
  47    -0.028024274543718
  48    -0.00034725935424546
  49         2.55847813664
  50      0.12017254687079
  51    -0.00050875863891186
  52    0.0015065845592931
  53      0.80885396413614
  54      -2.8624449506365
  55     -0.10979023654963
  56    -0.050929256340523
  57    0.00037680995363207
  58        1.192230014941
  59      0.66890793197746
  60    0.00020259366418288
  61      0.14472641794477
  62     -0.15661889439392
 Sym= A
 Ene=     1.794806653
 Spin= Alpha
 Occup=    0.00000
   1      0.53227643124222
   2      0.42356226329018
   3      0.02592585408021
   4       0.6170760599605
   5      -3.3237534990003
   6    -0.066802171622191
   7    -0.081587742265002
   8    0.0025520353638827
   9      -1.4171900951675
  10      0.34958953793888
  11    -0.0028411397255462
  12    -0.044121929312316
  13      -1.5750561533273
  14       6.1164349235014
  15    -0.015743626305604
  16       0.2459784602133
  17    -0.000334858226807
  18     0.077819644620673
  19      -2.1735728329174
  20    0.00055679423535139
  21     0.014197211748663
  22    0.0083605126204463
  23      -2.3577781943471
  24      0.21509245249696
  25      0.12671142974989
  26    -0.00072998929591532
  27       1.6896724759401
  28      -2.4232724557176
  29    0.0015129298494904
  30     -0.17948981050492
  31     -0.62338478043302
  32    0.0017113220689035
  33    -0.099844667984201
  34     -0.60843606523496
  35     -0.12903006123608
  36    -0.081155433005508
  37    0.00010383461761223
  38      -1.6861268647814
  39       1.8545341027431
  40    -0.0011260212666411
  41     -0.27198721714708
  42     -0.52982072139142
  43    -0.030555120549909
  44      -1.0781456472822
  45       4.6397631473286
  46      -0.1038173050961
  47     -0.13097409323779
  48    0.00011657971666815
  49      0.50578092712401
  50       1.5374383121676
  51    0.00063718859703381
  52     0.011905656516872
  53      0.59650805858708
  54      -2.9077107936237
  55     0.044010575439094
  56     0.027357492634853
  57    -2.5707606264942e-05
  58       1.1823178661497
  59     0.054887671046712
  60    -0.00041112664109566
  61      0.30021372562696
  62      0.29830168461045
 Sym= A
 Ene=     1.826444857
 Spin= Alpha
 Occup=    0.00000
   1     -0.35582830732291
   2     -0.23106056283895
   3    -0.019670293159686
   4     -0.34841232452136
   5       1.3758257795759
   6     0.013453411489982
   7     0.054346434182083
   8    -0.0017702895236819
   9      0.70220703212988
  10      -0.5061285805885
  11    0.0020089929688022
  12     0.021148726243324
  13       1.0454891124197
  14      -3.1826404112379
  15      0.22800893087883
  16      -0.1400663891426
  17    0.00028710224395883
  18     -0.94161867965396
  19       1.0647945191021
  20    -0.00034502365234367
  21    -0.035988146639219
  22     -0.34798563135127
  23       4.3405118812524
  24       -0.162554845091
  25    -0.089416719699817
  26    0.00048509208376448
  27      0.71571061725757
  28       1.1124114657917
  29    -0.0010532163035678
  30     -0.21610192045031
  31      0.14601220758623
  32      0.03713715826784
  33      0.35049185742249
  34      -4.7150907958184
  35     -0.23132722710368
  36     -0.12776850023343
  37    -0.00027645436397098
  38      0.16808949562584
  39       1.9421706427028
  40    0.00063138836403154
  41      0.10097144746926
  42     -0.41060897334743
  43     -0.03240749802837
  44      -1.5514665032669
  45       5.3930881015243
  46      0.16475039211882
  47     -0.15247509699848
  48    0.00049545624606732
  49     -0.59966490538716
  50       1.6396993978054
  51    -0.00026052057993429
  52      0.01927257492014
  53      0.78284347534292
  54      -2.9595762223957
  55     0.018885619318146
  56     0.039691720583196
  57    -0.00059591716930522
  58       1.3297908006229
  59     -0.32533290177311
  60    0.00022802448365184
  61      0.42652185848999
  62      0.37650497176294
