[Molden Format]
made by pyscf v[2.9.0]
[Atoms] (AU)
H   1   1    -5.23879324882549    -2.08616882439197     0.00000000000000
N   2   7    -5.43454052943856    -0.10999528853256     0.00000000000000
N   3   7    -3.32931381708035     0.96100699256469     0.00000000000000
C   4   6    -1.14187645939906    -0.55479146482818     0.00000000000000
H   5   1    -1.33192432602045    -2.61430003305479     0.00000000000000
C   6   6     1.14187645939906     0.55479146482818     0.00000000000000
H   7   1     1.33192432602045     2.61430003305479     0.00000000000000
N   8   7     3.32931381708035    -0.96100699256469     0.00000000000000
N   9   7     5.43454052943856     0.10999528853256     0.00000000000000
H   10   1     5.23879324882549     2.08616882439197     0.00000000000000
[GTO]
1 0
 s    3 1.00
             18.731137    0.03349459952309
             2.8253937    0.23472694665786
             0.6401217    0.81375731841339
 s    1 1.00
             0.1612778                   1

2 0
 s    6 1.00
              4173.511  0.0018347994430301
              627.4579   0.013994995751693
              142.9021   0.068586979179805
              40.23433    0.23224092950117
              12.82021    0.46906985760962
              4.390437    0.36045489058067
 s    3 1.00
             11.626358   -0.11496102288211
               2.71628   -0.16911803366165
              0.772218     1.1458522280731
 s    1 1.00
             0.2120313                   1
 p    3 1.00
             11.626358   0.067580023248036
               2.71628    0.32390711142648
              0.772218    0.74089525487354
 p    1 1.00
             0.2120313                   1

3 0
 s    6 1.00
              4173.511  0.0018347994430301
              627.4579   0.013994995751693
              142.9021   0.068586979179805
              40.23433    0.23224092950117
              12.82021    0.46906985760962
              4.390437    0.36045489058067
 s    3 1.00
             11.626358   -0.11496102288211
               2.71628   -0.16911803366165
              0.772218     1.1458522280731
 s    1 1.00
             0.2120313                   1
 p    3 1.00
             11.626358   0.067580023248036
               2.71628    0.32390711142648
              0.772218    0.74089525487354
 p    1 1.00
             0.2120313                   1

4 0
 s    6 1.00
             3047.5249  0.0018347001629433
             457.36951    0.01403730124668
             103.94869   0.068842606114048
             29.210155    0.23218442062076
              9.286663    0.46794134155879
              3.163927    0.36231203217765
 s    3 1.00
             7.8682724   -0.11933240861517
             1.8812885   -0.16085421161283
             0.5442493     1.1434564825515
 s    1 1.00
             0.1687144                   1
 p    3 1.00
             7.8682724   0.068999095584993
             1.8812885    0.31642397975315
             0.5442493    0.74430825237435
 p    1 1.00
             0.1687144                   1

5 0
 s    3 1.00
             18.731137    0.03349459952309
             2.8253937    0.23472694665786
             0.6401217    0.81375731841339
 s    1 1.00
             0.1612778                   1

6 0
 s    6 1.00
             3047.5249  0.0018347001629433
             457.36951    0.01403730124668
             103.94869   0.068842606114048
             29.210155    0.23218442062076
              9.286663    0.46794134155879
              3.163927    0.36231203217765
 s    3 1.00
             7.8682724   -0.11933240861517
             1.8812885   -0.16085421161283
             0.5442493     1.1434564825515
 s    1 1.00
             0.1687144                   1
 p    3 1.00
             7.8682724   0.068999095584993
             1.8812885    0.31642397975315
             0.5442493    0.74430825237435
 p    1 1.00
             0.1687144                   1

7 0
 s    3 1.00
             18.731137    0.03349459952309
             2.8253937    0.23472694665786
             0.6401217    0.81375731841339
 s    1 1.00
             0.1612778                   1

8 0
 s    6 1.00
              4173.511  0.0018347994430301
              627.4579   0.013994995751693
              142.9021   0.068586979179805
              40.23433    0.23224092950117
              12.82021    0.46906985760962
              4.390437    0.36045489058067
 s    3 1.00
             11.626358   -0.11496102288211
               2.71628   -0.16911803366165
              0.772218     1.1458522280731
 s    1 1.00
             0.2120313                   1
 p    3 1.00
             11.626358   0.067580023248036
               2.71628    0.32390711142648
              0.772218    0.74089525487354
 p    1 1.00
             0.2120313                   1

9 0
 s    6 1.00
              4173.511  0.0018347994430301
              627.4579   0.013994995751693
              142.9021   0.068586979179805
              40.23433    0.23224092950117
              12.82021    0.46906985760962
              4.390437    0.36045489058067
 s    3 1.00
             11.626358   -0.11496102288211
               2.71628   -0.16911803366165
              0.772218     1.1458522280731
 s    1 1.00
             0.2120313                   1
 p    3 1.00
             11.626358   0.067580023248036
               2.71628    0.32390711142648
              0.772218    0.74089525487354
 p    1 1.00
             0.2120313                   1

10 0
 s    3 1.00
             18.731137    0.03349459952309
             2.8253937    0.23472694665786
             0.6401217    0.81375731841339
 s    1 1.00
             0.1612778                   1

[5d]
[7f]
[9g]

[MO]
 Sym= A
 Ene=    -15.66014233
 Spin= Alpha
 Occup=    2.00000
   1    0.00027683526637261
   2    0.0004699329625405
   3    -0.042250094135605
   4    -0.00037858074834116
   5    -0.0052601408247748
   6    -4.8705270610152e-05
   7    0.00012147486173204
   8    7.0123738728476e-17
   9    -0.0023004383962311
  10    -0.00032473315475522
  11    -9.983206813717e-17
  12     -0.70313278780622
  13     -0.01704606393481
  14     0.014227642233144
  15    0.00041804692595063
  16    0.0021262511670558
  17    -5.4836236055942e-17
  18    -0.00043355749829607
  19    -0.0048304432575102
  20    1.1674003710067e-16
  21    -3.2000150481736e-05
  22    0.00028180586162775
  23    -0.0051020473626511
  24    1.9090962645022e-05
  25    0.00016061113086977
  26    7.7845380191635e-17
  27    0.0044452703738396
  28    -0.0032860872645445
  29    -1.1204935035295e-16
  30    1.5947468488458e-05
  31    -0.00057202527872379
  32    -3.2000160020949e-05
  33    0.00028180613717097
  34    -0.0051020513409515
  35    -1.909096354525e-05
  36    -0.00016061114989234
  37    2.4585429367765e-17
  38    -0.0044452720110907
  39    0.0032860880931796
  40    6.0157216670124e-19
  41    1.5947659086538e-05
  42    -0.00057202510767671
  43     -0.70313327913122
  44    -0.017046075753892
  45     0.014227650469811
  46    -0.00041804707335481
  47    -0.0021262525954569
  48    -1.632967715754e-17
  49    0.00043355689353714
  50    0.0048304458774884
  51    2.1924051186184e-17
  52     -0.04225012366817
  53    -0.00037858107043647
  54    -0.0052601432665105
  55    4.8705253026258e-05
  56    -0.00012147496331505
  57    -8.3474741267471e-18
  58    0.0023004395244389
  59    0.00032473310942204
  60    1.3739206707455e-18
  61    0.00027683543455461
  62    0.00046993320785438
 Sym= A
 Ene=    -15.66013739
 Spin= Alpha
 Occup=    2.00000
   1    -0.00024068007821837
   2    -0.00035102931117694
   3     0.042274937051733
   4    0.0004612147520249
   5    0.0034941189802286
   6    -2.512345746109e-05
   7    -0.00014537962747158
   8    4.507508658276e-17
   9    0.0016144874923632
  10    -6.4871338591307e-05
  11    -1.025816592477e-16
  12      0.70311485714065
  13     0.016913800423103
  14    -0.011787106210237
  15    -0.00021092333812511
  16    -0.0020441263885888
  17    -1.4024892019655e-16
  18    -0.00086549606023975
  19     0.003749334328444
  20    1.7047375000121e-16
  21    1.3665030710563e-05
  22    -0.00039432322997197
  23    0.0056931890719019
  24    -1.2856735089313e-06
  25    -2.722381744273e-05
  26    -1.3307626652494e-16
  27    -0.0023430226682532
  28     0.001185827493346
  29    1.0242575716342e-16
  30    -0.00027275588491877
  31    -0.0002447851516369
  32    -1.3665008346493e-05
  33    0.00039432303307682
  34    -0.0056931855067464
  35    -1.2856601513977e-06
  36    -2.7223705208627e-05
  37    -1.9100223409509e-17
  38    -0.0023430195620284
  39    0.0011858251970514
  40    -1.4618736629013e-17
  41    0.00027275587378466
  42    0.0002447855513946
  43     -0.70311436580022
  44    -0.016913788511496
  45      0.01178709626794
  46    -0.00021092304599257
  47    -0.0020441249027827
  48    1.5850754464701e-17
  49    -0.0008654963632784
  50    0.0037493309529469
  51    -1.7442457023737e-17
  52    -0.042274907579084
  53    -0.00046121448865029
  54    -0.0034941153039135
  55    -2.5123491350418e-05
  56    -0.00014537954263851
  57    8.5267395224241e-18
  58     0.001614485884645
  59    -6.487156545724e-05
  60    -4.1842293692135e-18
  61    0.00024067988475588
  62    0.00035102898265893
 Sym= A
 Ene=    -15.65014792
 Spin= Alpha
 Occup=    2.00000
   1    0.00023164977997311
   2    0.0017796984548184
   3      0.70309164328327
   4     0.016270879104102
   5    -0.0091621786467287
   6    0.0020608248968078
   7    -0.00068559463806459
   8    -2.6063505650518e-16
   9    -0.0032656375931764
  10     0.000642652778365
  11    3.2001745004233e-16
  12    -0.042381752692691
  13    -0.0014571266141463
  14    0.0044278372721541
  15    0.00030199520691664
  16    0.00025470354064938
  17    -3.8794698773812e-17
  18    -0.0013387511246504
  19    -0.0011218039329962
  20    -5.47805335776e-18
  21    6.1288776146125e-06
  22    -3.3018943931707e-05
  23    -0.0033775026325853
  24    0.00019142765195738
  25    7.6669292941009e-05
  26    -2.6671881194632e-18
  27    -0.0025797256566991
  28    -0.0016414217993391
  29    -4.6242015310972e-17
  30    -4.2344276983569e-05
  31    -0.0008046935130038
  32    -6.1288586814261e-06
  33    3.3019104907508e-05
  34    0.0033775022538271
  35    0.00019142778076677
  36    7.6669312881115e-05
  37    -2.4766392093887e-17
  38    -0.0025797259013306
  39    -0.0016414221663761
  40    5.9623036581437e-17
  41    4.2344350588609e-05
  42    0.00080469379807179
  43     0.042381774237025
  44    0.0014571273468256
  45    -0.0044278392743324
  46    0.00030199533886656
  47    0.00025470365305787
  48    2.4108275139269e-17
  49    -0.001338751690965
  50    -0.0011218044277503
  51    -4.0276197379823e-17
  52     -0.70309200099229
  53    -0.016270887312995
  54    0.0091621829755637
  55    0.0020608259364445
  56    -0.000685594984124
  57    6.7611224600953e-18
  58    -0.0032656390465133
  59    0.00064265312664534
  60    -7.2425821440914e-19
  61    -0.00023164986660152
  62    -0.0017796994123829
 Sym= A
 Ene=    -15.65014473
 Spin= Alpha
 Occup=    2.00000
   1    -0.00017028057611548
   2    -0.0018821184503377
   3     -0.70308164858534
   4    -0.016134679447074
   5    0.0085085263820895
   6    -0.0020434050033947
   7    0.00068018869186898
   8    -3.5844169638804e-17
   9    0.0028566191669361
  10    -0.00068454428495995
  11    -8.2579703899804e-18
  12     0.042362293401261
  13    0.0014405034543659
  14    -0.0039357027227019
  15    -0.00025935010229754
  16    -0.00022098794260834
  17    -4.0718684681637e-17
  18    0.0011131167845586
  19    0.00097258645147153
  20    3.4274542268254e-17
  21    3.7203768556467e-05
  22    0.00031639364266281
  23    -0.00074431112202234
  24    -0.00025318097568411
  25    -3.9196315607229e-05
  26    -2.1412324851394e-17
  27    0.00048069798885681
  28    0.00072151155047851
  29    3.7164626407009e-17
  30    0.00014467155893528
  31    0.00056032228177547
  32    3.7203771669637e-05
  33    0.00031639362584174
  34    -0.00074431284006103
  35    0.00025318087828765
  36    3.9196276601568e-05
  37    2.7439526857047e-17
  38    -0.00048069667617524
  39    -0.00072151071543254
  40    -5.6578982068099e-17
  41    0.00014467153737188
  42    0.00056032187234958
  43     0.042362271889555
  44      0.00144050271424
  45    -0.0039357004707621
  46    0.0002593499486721
  47    0.00022098781317212
  48    -2.4697919950735e-17
  49    -0.0011131161033861
  50    -0.00097258588098816
  51    4.1054955198595e-17
  52     -0.70308129086849
  53    -0.016134671168869
  54    0.0085085217208745
  55     0.002043403954912
  56    -0.00068018834304278
  57    -9.681798093895e-18
  58    -0.0028566175055805
  59    0.00068454395799454
  60    3.3736594701495e-18
  61    -0.00017028045827217
  62    -0.0018821175449026
 Sym= A
 Ene=    -11.28526254
 Spin= Alpha
 Occup=    2.00000
   1    0.0001031187447253
   2    0.00021348445324327
   3    1.4596509350387e-05
   4    0.00022142233717427
   5    -0.001199540763118
   6    7.2407744794952e-06
   7    -2.9563440988482e-05
   8    4.1979167641905e-17
   9    -0.00052359964813638
  10    0.0001322391503618
  11    -7.6625126661736e-17
  12    0.00011433443516583
  13    7.3322623268836e-05
  14    -0.00033582489073603
  15    5.6386413875504e-05
  16    5.0803071269985e-05
  17    -8.9167077412036e-17
  18    -0.00076213086430228
  19    -0.0004390898447224
  20    1.633520456779e-16
  21     -0.70415327222486
  22    -0.016917906265231
  23    0.0060073055178776
  24    0.0001410024666123
  25    -0.00025054968939646
  26    9.685840760172e-17
  27    -0.00011769751720979
  28    -4.6774142776891e-05
  29    -1.8260578704416e-16
  30    0.00023071086354862
  31    -0.0017248553205702
  32       -0.704153272047
  33    -0.016917906260619
  34    0.0060073055137804
  35    -0.00014100246668805
  36    0.00025054968924633
  37    -2.3810019259723e-17
  38    0.00011769751822811
  39    4.6774143352349e-05
  40    9.8388190719644e-17
  41    0.00023071086354129
  42    -0.0017248553202044
  43    0.00011433443513751
  44    7.3322623243706e-05
  45    -0.00033582489032473
  46    -5.6386413873962e-05
  47    -5.0803071268814e-05
  48    2.3028836930436e-17
  49    0.0007621308642258
  50    0.00043908984470792
  51    3.9597284606109e-18
  52    1.4596509345966e-05
  53    0.00022142233715316
  54    -0.0011995407631003
  55    -7.2407744728739e-06
  56    2.9563440983504e-05
  57    1.4352941803354e-16
  58    0.00052359964816347
  59    -0.00013223915028575
  60    -1.6052884800641e-16
  61    0.00010311874471128
  62    0.00021348445313962
 Sym= A
 Ene=    -11.28368534
 Spin= Alpha
 Occup=    2.00000
   1    4.8784843411827e-05
   2    0.00042035562241959
   3    -1.3691294640098e-06
   4    7.7114104014914e-05
   5    4.4753375583445e-05
   6    3.8166033300413e-05
   7    -1.9481908248378e-05
   8    -2.9370592675302e-17
   9    0.00016363507896794
  10    0.00032575744255279
  11    2.2683366835772e-17
  12    0.00012062148553497
  13    0.0001144212392693
  14    -0.0017194880716711
  15    -2.3862790836993e-05
  16    1.6561673459711e-05
  17    -3.1559180557696e-17
  18    -0.00021330616259989
  19    1.9617527951324e-05
  20    4.1111161364046e-17
  21     -0.70451705230688
  22    -0.018334368903377
  23     0.016223845468457
  24    -0.00040492920049896
  25    -0.00054535179913094
  26    1.2076665219744e-17
  27    0.0040300170605489
  28    0.0021489468611288
  29    -1.0174816884872e-17
  30    4.165826870878e-05
  31    -0.0015175040316117
  32      0.70451705248465
  33     0.018334368907664
  34    -0.016223845469985
  35    -0.00040492920048338
  36    -0.00054535179917316
  37    3.1940216187428e-17
  38    0.0040300170605629
  39    0.0021489468610643
  40    -4.3025437109617e-17
  41    -4.1658268768163e-05
  42    0.0015175040320716
  43    -0.00012062148555773
  44    -0.00011442123928343
  45    0.0017194880717195
  46    -2.3862790825577e-05
  47    1.6561673477924e-05
  48    -2.2094071474395e-17
  49    -0.00021330616280406
  50    1.9617527833896e-05
  51    -1.7246853974003e-17
  52    1.3691294555265e-06
  53    -7.7114104072219e-05
  54    -4.4753375262433e-05
  55    3.8166033303181e-05
  56    -1.9481908256014e-05
  57    -1.6714348652288e-16
  58    0.00016363507883313
  59    0.00032575744258062
  60    1.861939757117e-16
  61    -4.8784843436868e-05
  62    -0.00042035562247977
 Sym= A
 Ene=    -1.412386753
 Spin= Alpha
 Occup=    2.00000
   1    -0.046319379706588
   2    0.0071426611743493
   3     0.097662760325111
   4     -0.21645273063152
   5      -0.1412292335704
   6     -0.11838051438172
   7    -0.017992910195594
   8    2.3215747641339e-16
   9    -0.019749698479226
  10     0.010436050303489
  11    -5.3852455530064e-16
  12      0.10946017888345
  13     -0.23452792997708
  14     -0.21732234021984
  15     0.069514857104689
  16     0.091739280190221
  17    -2.9588529680304e-16
  18    -0.010802200629442
  19     0.047959771218065
  20    6.3518962603078e-16
  21      0.04375817022389
  22    -0.090849709898714
  23    0.0032461925838217
  24     0.031102381074193
  25     -0.02692633380806
  26    2.7105843180679e-16
  27    -0.029710814067585
  28     0.034671569885169
  29    -3.611105080536e-16
  30    -0.014366424326124
  31    0.0073601718154512
  32     0.043758170231844
  33    -0.090849709915428
  34    0.0032461925962276
  35      -0.0311023810892
  36     0.026926333813851
  37    8.6324014341614e-17
  38     0.029710814068472
  39     -0.03467156989248
  40    -7.8812058189358e-17
  41    -0.014366424328743
  42    0.0073601718162403
  43      0.10946017891394
  44     -0.23452793004256
  45     -0.21732234027641
  46    -0.069514857126802
  47    -0.091739280216007
  48    -5.6422685147303e-17
  49     0.010802200636218
  50    -0.047959771228892
  51    -2.831649163274e-17
  52     0.097662760353101
  53     -0.21645273069356
  54     -0.14122923361516
  55       0.1183805144159
  56     0.017992910200934
  57    -3.1328992512494e-17
  58      0.01974969848636
  59    -0.010436050305373
  60     1.14269109436e-16
  61    -0.046319379719956
  62    0.0071426611767569
 Sym= A
 Ene=    -1.407366453
 Spin= Alpha
 Occup=    2.00000
   1     -0.04810520546696
   2    0.0089168830266211
   3      0.10088217928482
   4     -0.22325869431186
   5     -0.16323388357953
   6     -0.12243746702528
   7    -0.018522857544624
   8    2.6118255350049e-16
   9    -0.026534145172552
  10    0.0065332121509434
  11    -3.8411715288073e-16
  12      0.10952294303397
  13     -0.23500468843614
  14     -0.20379427750373
  15     0.078338986491332
  16     0.092837256597747
  17    -3.1022195637448e-16
  18    -0.025891765970808
  19     0.039056053048173
  20    6.3773250557092e-16
  21     0.028405426067981
  22      -0.0608602424783
  23     0.050434179852965
  24     0.053785791157889
  25    -0.020559843785738
  26    1.1789280029531e-16
  27    -0.0028532785658959
  28     0.028047456672473
  29    -6.0236777440212e-16
  30    -0.0098266229392556
  31    0.0026217618220114
  32    -0.028405426055788
  33     0.060860242452731
  34    -0.050434179851252
  35     0.053785791149367
  36    -0.020559843778263
  37    1.2042289445924e-16
  38    -0.0028532785568516
  39     0.028047456662074
  40    1.6530701615129e-16
  41    0.0098266229351504
  42    -0.0026217618198735
  43     -0.10952294300353
  44      0.23500468837105
  45      0.20379427744265
  46      0.07833898647235
  47     0.092837256572185
  48    -6.8958661544993e-17
  49    -0.025891765967457
  50     0.039056053034569
  51    5.3053449983607e-17
  52     -0.10088217925758
  53      0.22325869425163
  54      0.16323388353978
  55     -0.12243746699249
  56    -0.018522857539821
  57    -1.9973509998863e-17
  58    -0.026534145166837
  59    0.0065332121480704
  60    3.9179690160173e-18
  61     0.048105205454075
  62    -0.0089168830246226
 Sym= A
 Ene=    -1.127943647
 Spin= Alpha
 Occup=    2.00000
   1     0.045359833372474
   2    -0.0058257759865725
   3    -0.068970617208397
   4      0.15319153026015
   5      0.17904045279228
   6      0.03939148809514
   7    -0.0030075494742189
   8    7.8374754082553e-17
   9     0.029507538720273
  10    -0.014129946895448
  11    -4.5317172763785e-16
  12     0.023516977252512
  13    -0.043501643542082
  14     -0.10409374019105
  15      -0.1537254127003
  16     0.007600870959162
  17    -4.3651208624214e-18
  18    -0.034364690660465
  19      0.02241835105264
  20    7.6300110726396e-16
  21      0.13570162806104
  22     -0.28259136969974
  23     -0.16418080109893
  24    -0.066323421961086
  25    -0.066081600985427
  26    4.4270187844424e-16
  27    -0.012779941378575
  28     0.024788312633741
  29    -3.6745734375707e-16
  30    -0.062786307401801
  31    0.0050268641214221
  32      0.13570162806141
  33     -0.28259136970025
  34     -0.16418080109936
  35      0.06632342196019
  36      0.06608160098572
  37    -5.1572603472487e-17
  38     0.012779941379037
  39    -0.024788312633747
  40    8.9254588106291e-17
  41     -0.06278630740184
  42    0.0050268641216448
  43     0.023516977253037
  44    -0.043501643542749
  45     -0.10409374019434
  46      0.15372541270161
  47    -0.0076008709594166
  48    6.8654460641944e-17
  49     0.034364690660701
  50    -0.022418351053484
  51    -2.4482671278672e-16
  52    -0.068970617208927
  53       0.1531915302613
  54      0.17904045279461
  55    -0.039391488095494
  56    0.0030075494741088
  57    -1.0556839034689e-16
  58    -0.029507538720898
  59     0.014129946895366
  60    1.3599246760728e-16
  61     0.045359833372837
  62    -0.0058257759865359
 Sym= A
 Ene=     -1.00310149
 Spin= Alpha
 Occup=    2.00000
   1    -0.090158656199883
   2    -0.0066186113209156
   3     0.093888319067587
   4     -0.20769595864187
   5      -0.2823179167021
   6    0.0025490686261613
   7     0.047883320973431
   8    -2.2028713246515e-16
   9    -0.029957462356664
  10      0.02813356360988
  11    -6.9120019140717e-19
  12     -0.07324695734512
  13      0.15353500881404
  14      0.25382703635351
  15      0.18020692487562
  16    -0.030455034300844
  17    -1.3368529176014e-16
  18       0.0482044987624
  19    -0.041432095552206
  20    -2.5865428971719e-16
  21    -0.072823747699224
  22      0.15302260627173
  23     0.093304749513198
  24     -0.13054784427262
  25     0.063246076663718
  26    -4.189203334222e-16
  27    -0.0084839679073732
  28    -0.0048673939822165
  29    -2.6839209098257e-16
  30     0.033268667428987
  31    -0.0035493333992686
  32     0.072823747698074
  33     -0.15302260626902
  34    -0.093304749511765
  35     -0.13054784427424
  36      0.06324607666348
  37    -1.4783780901881e-16
  38    -0.008483967907938
  39    -0.0048673939813139
  40    5.2441337776119e-17
  41    -0.033268667428143
  42    0.0035493333992564
  43     0.073246957345508
  44     -0.15353500881451
  45     -0.25382703635603
  46      0.18020692487493
  47    -0.030455034300751
  48    -3.6490509194186e-17
  49      0.04820449876156
  50    -0.041432095552647
  51    -1.5954793377389e-16
  52    -0.093888319067672
  53      0.20769595864188
  54      0.28231791670391
  55    0.0025490686263343
  56      0.04788332097362
  57    2.5732489141051e-17
  58    -0.029957462357254
  59     0.028133563609541
  60    8.1093739617419e-17
  61     0.090158656200131
  62    0.0066186113213813
 Sym= A
 Ene=   -0.8837370927
 Spin= Alpha
 Occup=    2.00000
   1      0.14984726968242
   2     0.046225348543493
   3    -0.072424999904556
   4      0.15134568370074
   5      0.28613704999861
   6    -0.087102907435966
   7     -0.17397714916674
   8    2.8772219170492e-16
   9     0.016983737309351
  10    -0.060754447854912
  11    4.3661652032111e-17
  12     0.088905924796645
  13      -0.1957189627083
  14     -0.34130284427448
  15    0.0052276475309247
  16    -0.010205774009203
  17    1.3799282102808e-16
  18     0.014321836017367
  19     0.038824370759696
  20    1.6741757265717e-16
  21     -0.05359744365465
  22      0.11348767506861
  23      0.14052095030461
  24      0.14759132620087
  25     -0.03010153749366
  26    1.9321617865808e-16
  27    -0.017279027150284
  28    -0.0060122246557614
  29    1.8134280675172e-16
  30     0.056681228447863
  31     0.015990551975795
  32    -0.053597443655538
  33       0.1134876750708
  34      0.14052095030284
  35     -0.14759132619928
  36     0.030101537493974
  37    8.6715046501348e-18
  38     0.017279027150843
  39    0.0060122246574699
  40    -1.9725310812191e-17
  41     0.056681228448907
  42     0.015990551975847
  43     0.088905924796593
  44     -0.19571896270832
  45      -0.3413028442741
  46    -0.0052276475339693
  47     0.010205774010538
  48    -1.2392459902805e-16
  49    -0.014321836019695
  50    -0.038824370758907
  51    -9.8984960682409e-17
  52    -0.072424999904321
  53      0.15134568369985
  54      0.28613704999932
  55     0.087102907436482
  56      0.17397714916811
  57    5.5995145079279e-17
  58    -0.016983737309567
  59     0.060754447854951
  60    1.7772156643776e-17
  61      0.14984726968312
  62     0.046225348544377
 Sym= A
 Ene=   -0.8358773703
 Spin= Alpha
 Occup=    2.00000
   1     -0.12542114015289
   2    -0.052313102664825
   3     0.016521355765022
   4    -0.024776036415663
   5      -0.1017920736344
   6     0.065111839586518
   7      0.19768628247782
   8    -1.0629329924121e-16
   9    -0.0083558611065475
  10     0.067306954503705
  11    1.6165106825524e-16
  12    -0.049882580420085
  13      0.11904118086342
  14      0.17098274373747
  15     -0.13116437094338
  16     0.090593325199429
  17    4.3701725643792e-18
  18    -0.063038931225237
  19     0.022985794423586
  20    -4.0350106391261e-16
  21     0.076862900203701
  22     -0.16327795829423
  23    -0.096850652169811
  24     0.063859745554721
  25      0.11622731997941
  26    3.0985949842798e-16
  27     0.078195737845266
  28      0.08832816781273
  29    5.7191377609992e-16
  30     -0.12885028263698
  31    -0.039693570678179
  32    -0.076862900203054
  33      0.16327795829297
  34     0.096850652167126
  35     0.063859745557309
  36      0.11622731997876
  37    9.8408002987779e-17
  38     0.078195737844651
  39     0.088328167813415
  40    -2.9181931193883e-16
  41      0.12885028263636
  42     0.039693570677744
  43     0.049882580419217
  44     -0.11904118086177
  45     -0.17098274373342
  46     -0.13116437094484
  47     0.090593325200473
  48    -6.2073247220137e-18
  49    -0.063038931226459
  50     0.022985794424989
  51    1.3902957072634e-16
  52    -0.016521355764348
  53      0.02477603641402
  54      0.10179207363218
  55     0.065111839585697
  56      0.19768628247715
  57    -8.666592956307e-18
  58    -0.0083558611066561
  59     0.067306954503417
  60    -6.4197414498359e-17
  61      0.12542114015205
  62     0.052313102664942
 Sym= A
 Ene=    -0.741154719
 Spin= Alpha
 Occup=    2.00000
   1     -0.11760511621505
   2    -0.058668826042698
   3     0.017440362962917
   4    -0.026150097091076
   5    -0.094251582738279
   6      0.10632101246986
   7      0.18331613291388
   8    -1.7112955347401e-16
   9     0.021736116630066
  10     0.073390984163944
  11    -2.3190931845396e-16
  12    0.0020375399323292
  13    0.0020288524953046
  14    0.0068837757888726
  15      -0.1998845002274
  16    -0.022984486806298
  17    4.3520847888107e-16
  18    -0.071120013974979
  19    -0.016700098057355
  20    1.1816558588537e-16
  21     -0.03090325086021
  22     0.061805361854417
  23     0.046208284644375
  24     0.063552459874153
  25      -0.2423988636744
  26    1.2342280470985e-16
  27    -0.0016146506132685
  28     -0.10236341470862
  29    2.5128480795653e-16
  30      0.14848833210679
  31     0.072054471347047
  32     0.030903250861298
  33    -0.061805361856934
  34    -0.046208284644037
  35     0.063552459885718
  36     -0.24239886367313
  37    1.4104408832469e-17
  38    -0.001614650608172
  39     -0.10236341470928
  40    -1.1709282503104e-16
  41     -0.14848833210694
  42     -0.07205447134709
  43    -0.0020375399328549
  44    -0.0020288524944004
  45    -0.0068837757885934
  46     -0.19988450023513
  47    -0.022984486802171
  48    -6.8154281547277e-17
  49    -0.071120013977385
  50    -0.016700098055829
  51    -6.0957081545347e-17
  52    -0.017440362961828
  53     0.026150097088011
  54     0.094251582735471
  55      0.10632101247017
  56      0.18331613292082
  57    4.8488243484277e-17
  58     0.021736116629449
  59     0.073390984167002
  60    1.4746120773787e-16
  61      0.11760511621841
  62     0.058668826045042
 Sym= A
 Ene=   -0.7292445129
 Spin= Alpha
 Occup=    2.00000
   1    -0.094346494698785
   2    -0.054205007761975
   3    -0.030328517985176
   4     0.082098210331244
   5     0.074583879824347
   6    -0.0063521043563023
   7      0.20473774131684
   8    1.8805301862302e-16
   9    -0.028994035642952
  10     0.085793387076387
  11    1.4381325228596e-16
  12    0.0084445588292874
  13    -0.010861273711838
  14    -0.025290618371583
  15     -0.20564959067433
  16      0.13930163592612
  17    3.2439112550527e-16
  18    -0.085211926164084
  19     0.069513167596124
  20    2.2292995779227e-16
  21    -0.023969338104498
  22     0.052548569639858
  23     0.022188156638222
  24      0.30589383778999
  25     0.041783838857045
  26    2.5798295477066e-16
  27      0.09602536354843
  28     0.027089396346084
  29    2.0086843750137e-16
  30    -0.015281451468871
  31    -0.0038967739949003
  32    -0.023969338103843
  33     0.052548569638759
  34     0.022188156635537
  35      -0.3058938377869
  36    -0.041783838864648
  37    2.6918061196605e-17
  38    -0.096025363548292
  39    -0.027089396348238
  40    -8.6353803103482e-17
  41    -0.015281451473388
  42    -0.0038967739975976
  43    0.0084445588291931
  44    -0.010861273711851
  45    -0.025290618370797
  46      0.20564959066556
  47     -0.13930163592699
  48    -1.3606114970076e-16
  49     0.085211926160541
  50    -0.069513167596793
  51    -1.3864750464723e-17
  52    -0.030328517985759
  53      0.08209821033202
  54     0.074583879828035
  55    0.0063521043610642
  56     -0.20473774130912
  57    -8.2372037964286e-17
  58     0.028994035644249
  59    -0.085793387073654
  60    -4.6802287457416e-17
  61    -0.094346494694003
  62    -0.054205007759638
 Sym= A
 Ene=   -0.6432143128
 Spin= Alpha
 Occup=    2.00000
   1    -0.074295348481347
   2    -0.041160644918281
   3     0.015699801460505
   4    -0.026379250653644
   5    -0.075499162030465
   6      0.14371158575132
   7      0.10305828803894
   8    -2.5135745900933e-16
   9     0.065722930058625
  10     0.042932507034758
  11    -2.6951624642747e-16
  12     0.033026122566926
  13    -0.069461204497513
  14     -0.10608538478211
  15     -0.18499255111425
  16     -0.12479430983332
  17    2.9449741267654e-16
  18    -0.058775278740764
  19    -0.069634000070415
  20    1.3503301065191e-16
  21    -0.019121733368731
  22     0.035655477152472
  23     0.089575752773722
  24    -0.049740881687917
  25     -0.25938295754399
  26    8.0313572167668e-17
  27    -0.010359222142285
  28     -0.17920506432868
  29    3.234303663401e-16
  30      0.17662382275003
  31     0.078845527557799
  32    -0.019121733368549
  33     0.035655477152369
  34      0.08957575277155
  35     0.049740881688131
  36      0.25938295754252
  37    1.1188582366415e-17
  38     0.010359222140903
  39      0.17920506432864
  40    -2.2939561009812e-16
  41       0.1766238227495
  42     0.078845527557879
  43     0.033026122567038
  44    -0.069461204497697
  45      -0.1060853847819
  46      0.18499255111374
  47        0.124794309836
  48    -1.6044865060077e-17
  49     0.058775278739591
  50     0.069634000072594
  51    1.6039921643725e-16
  52     0.015699801460751
  53    -0.026379250654141
  54    -0.075499162030868
  55      -0.1437115857531
  56      -0.1030582880376
  57    -4.4012699591955e-17
  58    -0.065722930059975
  59    -0.042932507034117
  60    -5.4153780572398e-17
  61    -0.074295348481073
  62    -0.041160644918767
 Sym= A
 Ene=   -0.5656280884
 Spin= Alpha
 Occup=    2.00000
   1    -0.020524719062596
   2     0.011016699081908
   3    -0.041133458128121
   4     0.084708808428562
   5      0.17229047459566
   6     -0.30276599566206
   7     0.097792931445497
   8    8.0779397974383e-16
   9     -0.17371392932875
  10     0.067248081526982
  11    5.0951036080155e-16
  12    -0.018232818935001
  13      0.04009109553372
  14      0.05651883059079
  15     0.094584177482783
  16       0.2650190793703
  17    -9.2198827870753e-18
  18    -0.0065540517856697
  19       0.1735057897368
  20    8.2890876813437e-18
  21    -0.031155912883968
  22     0.047156803329555
  23      0.32056467967546
  24      0.01391498820216
  25    -0.058078722115776
  26    -1.8003070332392e-16
  27      0.08579486994821
  28     0.069103315445622
  29    -1.6770595884741e-16
  30     0.075928959364148
  31     0.068298580312929
  32     0.031155912883726
  33      -0.0471568033285
  34     -0.32056467967631
  35      0.01391498819663
  36    -0.058078722122588
  37    -1.5379698569483e-16
  38     0.085794869946662
  39     0.069103315442641
  40    1.5120372792133e-18
  41    -0.075928959369267
  42     -0.06829858031734
  43     0.018232818935415
  44    -0.040091095534334
  45    -0.056518830593381
  46     0.094584177484487
  47      0.26501907937547
  48    6.0723780583899e-17
  49    -0.0065540517849132
  50      0.17350578974077
  51    -5.4413723772061e-17
  52     0.041133458128576
  53      -0.0847088084292
  54     -0.17229047459833
  55     -0.30276599566774
  56     0.097792931447407
  57    1.7066167166181e-16
  58     -0.17371392933247
  59     0.067248081528894
  60     1.14824620947e-16
  61     0.020524719063026
  62    -0.011016699082354
 Sym= A
 Ene=   -0.5341779073
 Spin= Alpha
 Occup=    2.00000
   1    -0.012735922472043
   2     0.014597161681389
   3    -0.024865350757856
   4     0.046970115871834
   5      0.12649431936746
   6     -0.26879528362039
   7      0.07160994500749
   8    5.5513420599489e-16
   9     -0.15632713080706
  10     0.062460847866238
  11    4.0994099454043e-16
  12      -0.0234950218162
  13     0.045800016738174
  14      0.11187331998254
  15      0.10224612981615
  16      0.22910611423776
  17    8.0042547391238e-17
  18     0.041098462112103
  19      0.16036935100442
  20    -1.3021395689505e-16
  21     0.011326622617404
  22    -0.039219386170397
  23     0.019002496934088
  24     -0.16707562074459
  25     -0.17255169876463
  26    9.6754644188071e-18
  27    -0.056813819127895
  28    -0.061983826059632
  29    2.1219535907679e-16
  30      0.13009900101224
  31       0.1213939756849
  32     0.011326622618085
  33    -0.039219386171565
  34     0.019002496929514
  35      0.16707562074432
  36      0.17255169876304
  37    1.9488431517868e-17
  38     0.056813819128431
  39     0.061983826059825
  40    -3.2669487034787e-17
  41      0.13009900101088
  42      0.12139397568441
  43    -0.023495021815687
  44     0.045800016737033
  45      0.11187331998032
  46     -0.10224612981304
  47     -0.22910611423111
  48    -2.7684751722612e-17
  49    -0.041098462111392
  50     -0.16036935100042
  51    1.5740653920801e-19
  52     -0.02486535075665
  53     0.046970115869174
  54      0.12649431936242
  55       0.2687952836113
  56    -0.071609945004381
  57    -8.6753537837286e-17
  58      0.15632713080194
  59    -0.062460847864212
  60    -5.2461628490917e-17
  61    -0.012735922471134
  62     0.014597161681492
 Sym= A
 Ene=   -0.4172990634
 Spin= Alpha
 Occup=    2.00000
   1     -0.13553113605196
   2     -0.14985693806861
   3    -0.047567433634078
   4      0.11552178660166
   5      0.16339733039099
   6     -0.14682142395552
   7      0.19637042529014
   8    6.8961459168503e-16
   9     -0.16524751612344
  10      0.11798285236003
  11    5.4701741827899e-16
  12     0.050091993677736
  13     -0.11832241187584
  14     -0.16570671955764
  15     0.042836176225981
  16     -0.28570771671436
  17    2.3839090096803e-16
  18    -0.013518237203441
  19     -0.24653186239399
  20    -2.923946982022e-17
  21    -0.027384594296103
  22     0.068690253467342
  23     0.089232440765178
  24     -0.11693661343632
  25       0.1016133722244
  26    -2.3180582907906e-16
  27    -0.010198029109424
  28     0.046483613945111
  29    -2.2097699467561e-17
  30    -0.044853064900583
  31    -0.053750473059678
  32     0.027384594311073
  33    -0.068690253508038
  34    -0.089232440814466
  35     -0.11693661351344
  36      0.10161337227506
  37    -1.0134450715438e-16
  38    -0.010198029141331
  39     0.046483613964484
  40    -3.9873069762815e-17
  41       0.0448530649319
  42     0.053750473119965
  43    -0.050091993700262
  44      0.11832241192942
  45      0.16570671962691
  46     0.042836176274687
  47     -0.28570771686766
  48    -6.6367359028704e-17
  49    -0.013518237205892
  50     -0.24653186252785
  51    -1.3548972696239e-16
  52     0.047567433661065
  53     -0.11552178666668
  54     -0.16339733048043
  55     -0.14682142406274
  56      0.19637042539937
  57    2.8121803508554e-16
  58     -0.16524751623667
  59      0.11798285242787
  60    3.063611997487e-16
  61      0.13553113612834
  62      0.14985693815084
 Sym= A
 Ene=   -0.4155417286
 Spin= Alpha
 Occup=    2.00000
   1      0.13123083740691
   2      0.14042813035699
   3     0.046280331504812
   4     -0.11186665216429
   5     -0.15080843414898
   6      0.18413580294068
   7     -0.18800657771062
   8    -6.64505471979e-16
   9       0.1948530994394
  10     -0.11615471484848
  11    -4.3755262241881e-16
  12    -0.039032651695779
  13     0.092905134711427
  14      0.11914704598748
  15    -0.082636989108685
  16      0.26591042374651
  17    -2.5084753111045e-16
  18    0.0059058219798816
  19       0.2317851967197
  20    -2.1042169189996e-16
  21     0.025864137382783
  22    -0.070212969158377
  23    -0.084271165796172
  24      0.13270854347197
  25     -0.08786080434361
  26    4.1573759945602e-16
  27     0.054637439559042
  28    -0.034798076294161
  29    3.7866185318481e-16
  30     0.053960145756492
  31      0.10224915564827
  32     0.025864137366903
  33    -0.070212969118495
  34    -0.084271165744203
  35     -0.13270854340396
  36      0.08786080428438
  37    1.2037930328211e-16
  38    -0.054637439553896
  39     0.034798076266796
  40    -5.0547123883175e-18
  41     0.053960145730454
  42      0.10224915561763
  43    -0.039032651666683
  44     0.092905134642645
  45      0.11914704589236
  46     0.082636989084067
  47     -0.26591042357993
  48    -9.0686028958759e-17
  49    -0.005905821971285
  50     -0.23178519657589
  51    -1.2747720405942e-16
  52     0.046280331477298
  53     -0.11186665209726
  54     -0.15080843405601
  55     -0.18413580285523
  56      0.18800657759675
  57    2.3369709445309e-16
  58     -0.19485309934324
  59       0.1161547147804
  60    2.6852387931409e-16
  61      0.13123083732844
  62      0.14042813027078
 Sym= A
 Ene=               0
 Spin= Alpha
 Occup=    1.92382
   1    -8.3665938972176e-17
   2    1.7414123404262e-16
   3    1.1407304902804e-16
   4    -4.3215525755259e-16
   5    3.436513410696e-16
   6    1.5352472564986e-16
   7    -1.9252420440708e-16
   8      0.14256849072499
   9    5.4456949871039e-16
  10    -9.7218478411977e-17
  11     0.077967951890784
  12    -9.8851711290726e-17
  13    1.9001382558575e-16
  14    9.3182924662085e-16
  15    2.935368257196e-16
  16    -1.7719000549633e-16
  17      0.23169937646187
  18    9.1616751118024e-16
  19    -2.6858979912916e-17
  20      0.14601795188984
  21    -1.1029004509421e-16
  22    -8.1745788751508e-17
  23    2.7698340566726e-15
  24    -9.5738069185647e-17
  25    2.0469764537273e-16
  26      0.29955958995397
  27    1.9423895316212e-15
  28    -1.928940174986e-15
  29      0.17296302167894
  30    -2.6468944173644e-16
  31    -2.112344944758e-15
  32    7.2620464225308e-18
  33    -1.2891691024199e-17
  34    -2.9861254228008e-16
  35    1.5670349002298e-17
  36    -2.2152709162583e-16
  37      0.29955958995705
  38    1.120521714792e-15
  39    2.9224277135154e-15
  40      0.17296302167604
  41    -2.426713500309e-16
  42    -2.2669017681027e-15
  43    4.4386116108022e-17
  44    9.9791401372286e-17
  45    -1.1652474864306e-17
  46    2.5026404862254e-17
  47    1.0467150136754e-16
  48      0.23169937646642
  49    -1.9810845742578e-16
  50    -5.0296620436141e-16
  51      0.14601795189497
  52    -2.011292887419e-17
  53    1.3001860794106e-16
  54    2.674742491918e-16
  55    2.4934469424681e-18
  56    -6.1390712761948e-17
  57      0.14256849072781
  58    1.2480614173363e-16
  59    1.0157945303611e-16
  60     0.077967951893424
  61    8.4364747840725e-18
  62    -2.426564897092e-16
 Sym= A
 Ene=               0
 Spin= Alpha
 Occup=    1.88377
   1    -7.620717654147e-17
   2    -1.753430197423e-16
   3    -1.9728914715562e-16
   4    5.6500829213936e-16
   5    1.3958511977749e-15
   6    -4.4541529973148e-16
   7    4.2051398202996e-16
   8     -0.28400286804918
   9    5.3493219906341e-17
  10    7.0988178873003e-16
  11     -0.18428181947408
  12    1.8379455781067e-16
  13    -1.4356395248169e-16
  14    -2.4177156214665e-15
  15    -1.9184470732244e-16
  16    8.4746461240062e-17
  17     -0.30777657636837
  18    4.1080925653073e-16
  19    8.1235635485185e-16
  20     -0.20094854256878
  21    1.9723138877782e-17
  22    3.0142466699959e-16
  23    -2.5562220611277e-15
  24    -1.6681370404766e-16
  25    1.2310844000763e-16
  26    -0.068796539087449
  27    -3.1785036647027e-15
  28    -7.9882609273672e-16
  29     -0.05202047409089
  30    8.7344174849757e-18
  31    -1.9197715497524e-16
  32    -5.7589482887982e-17
  33    -2.9345475194672e-16
  34    3.7085157098386e-15
  35    -1.1457957317238e-16
  36    3.9274733858343e-17
  37      0.06879653908414
  38    -1.9758293017819e-15
  39    -1.2080558365837e-15
  40     0.052020474095203
  41    -5.178182491213e-17
  42    -3.7032764480556e-17
  43    1.0503251226873e-17
  44    -1.0166618848317e-16
  45    -1.6743516402004e-16
  46    7.3708328002979e-17
  47    7.2521845275491e-17
  48      0.30777657636162
  49    -1.8940954447577e-16
  50    1.9225319622687e-16
  51      0.20094854256315
  52    -5.5505343698883e-17
  53    5.6439026510197e-18
  54    5.6820427784485e-16
  55    1.6234811574156e-16
  56    -3.4021364565357e-17
  57      0.28400286804224
  58    -1.3059819159249e-16
  59    -3.5137239263925e-17
  60      0.18428181946956
  61    -1.4967533657286e-16
  62    -8.4776570932549e-17
 Sym= A
 Ene=               0
 Spin= Alpha
 Occup=    1.80666
   1    -1.9256447587637e-16
   2    -1.4955458281914e-16
   3    -1.5243113672679e-16
   4    4.3120901451654e-16
   5    1.3321686336827e-15
   6    -5.6448698563177e-16
   7    4.2771514090111e-16
   8     -0.30184378583845
   9    4.5902165658968e-17
  10    6.7693833422564e-16
  11     -0.21422908859672
  12    1.5363809720371e-16
  13    -5.7769310488096e-17
  14    -1.8809101575709e-15
  15    6.0421998245763e-17
  16    -7.8726399983995e-17
  17     -0.19268556425203
  18    5.7898833380601e-16
  19    8.3947598593202e-16
  20     -0.12659184922591
  21    -7.5802647220556e-17
  22    5.8482927915671e-16
  23    -1.8219041973727e-15
  24    -4.3787704561987e-16
  25    3.4457601080561e-16
  26      0.29199748939541
  27    -2.9303651492479e-15
  28    -2.6488498618369e-15
  29      0.18776976953462
  30    -1.8514581538528e-16
  31    -1.8170592843777e-15
  32    -1.5777861120238e-17
  33    -4.5783453156336e-16
  34    3.8497092859341e-15
  35    1.2715688824392e-17
  36    4.9058758067104e-17
  37       0.2919974893964
  38    -3.0110970253495e-15
  39    8.5898513650208e-16
  40      0.18776976952652
  41    -1.9609757160781e-16
  42    -1.4823921057027e-15
  43    -5.2224854591091e-17
  44    8.4024703849871e-18
  45     6.91882247561e-16
  46    1.1243002703257e-17
  47    7.8794554681662e-17
  48     -0.19268556425678
  49    -1.2271636796731e-15
  50    1.7166218599791e-16
  51      -0.1265918492271
  52    1.8164125542467e-17
  53    -1.7494150363012e-16
  54    6.310665943832e-16
  55    -9.8047315782743e-17
  56    1.447774725048e-16
  57     -0.30184378584604
  58    -6.133461130611e-16
  59    -4.1101883625613e-16
  60     -0.21422908859768
  61    2.316265103215e-18
  62    5.7898658263136e-16
 Sym= A
 Ene=               0
 Spin= Alpha
 Occup=    0.19571
   1    2.4660264210037e-16
   2    -2.1039198424697e-16
   3    1.0989308928275e-16
   4    -2.6439360647966e-17
   5    -2.24944191971e-15
   6    5.054549838138e-16
   7    -2.0965678206649e-16
   8      0.35052324097505
   9    -1.0634480028717e-15
  10    -7.689032540946e-16
  11      0.26990243089252
  12    1.7913411068228e-18
  13    -7.9063409722539e-17
  14    7.6926590349932e-16
  15    -2.2861377495223e-16
  16    1.3946322916321e-16
  17     -0.21969446853064
  18    -2.0661486965596e-15
  19    -3.777104858181e-17
  20     -0.16456491571468
  21    2.1685125512153e-17
  22    -1.2103707787111e-16
  23    -2.3220534043956e-16
  24    9.5626648278689e-17
  25    7.0517057922393e-17
  26     -0.27199142012088
  27    -1.5966422036878e-15
  28    2.6235062749333e-16
  29     -0.30807406307553
  30    3.5009229772446e-17
  31    8.6261199549461e-17
  32    -2.4533465328357e-17
  33    -2.3423037498268e-16
  34    1.5773246326349e-15
  35    -1.7107477662321e-16
  36    9.3430423815717e-17
  37      0.27199142012157
  38    -7.4788391061698e-16
  39    -9.2332971272633e-16
  40      0.30807406306643
  41    8.5419840810083e-17
  42    1.0674220971409e-16
  43    -2.1985464553971e-17
  44    -4.3783458081002e-17
  45    6.6536403520638e-16
  46    9.7360001644735e-17
  47    1.4545640585015e-17
  48      0.21969446852915
  49    5.9248411107423e-16
  50    2.7960544031373e-16
  51      0.16456491573417
  52    4.7184861309664e-17
  53    6.208983427821e-17
  54    -1.2009756076686e-15
  55    -1.1561562906236e-16
  56    4.7494744188498e-17
  57     -0.35052324097542
  58    4.6488182330044e-16
  59    1.4312909965646e-16
  60      -0.2699024309072
  61    9.8679973969129e-17
  62    4.7418834054237e-16
 Sym= A
 Ene=               0
 Spin= Alpha
 Occup=    0.11540
   1    -3.9134176929997e-16
   2    4.5840267833428e-16
   3    -1.377368785917e-16
   4    -8.3822005582659e-17
   5    3.3522092044192e-15
   6    -5.0060961960376e-16
   7    1.5437904106656e-16
   8     -0.38761027093767
   9    1.815269878354e-15
  10    1.132326913014e-15
  11     -0.23369072738607
  12    -7.8067291886723e-17
  13    5.6099119927112e-17
  14    9.0023828728556e-16
  15    3.3481410017664e-16
  16    -3.7734739375292e-17
  17      0.42301880411931
  18    4.0221010069259e-15
  19    -6.6688320294926e-16
  20      0.27961999232493
  21    6.0366032212605e-17
  22    -3.7233252795318e-16
  23    4.8482222210491e-16
  24    3.2588540493188e-16
  25    -9.8708774174498e-17
  26     -0.16490073282781
  27    4.5637290398055e-15
  28    -2.1230457241972e-15
  29    -0.082969056606899
  30    -2.7911992614619e-17
  31    -7.8036164140156e-16
  32    6.2710819051596e-17
  33    3.2295608426251e-16
  34    -3.5061134746373e-15
  35    -1.0499978253804e-17
  36    -1.2514643763481e-16
  37     -0.16490073284056
  38    1.1330266270369e-15
  39    3.3283783567691e-15
  40    -0.082969056590575
  41    -1.2650515414442e-16
  42    -1.2187393634916e-15
  43    2.1134428018323e-17
  44    -6.6941391343648e-17
  45    4.225802656617e-16
  46    5.8140517408043e-17
  47    -2.2566684000621e-16
  48      0.42301880410525
  49    -1.1658324017084e-15
  50    -8.6364060518718e-17
  51      0.27961999233052
  52    -1.7305150962447e-17
  53    -3.4310054377773e-16
  54    1.5504458956145e-15
  55    -2.0676206081035e-16
  56    1.905042650549e-16
  57     -0.38761027092635
  58    -2.4514419175946e-16
  59    8.2541984878542e-19
  60     -0.23369072739121
  61    -5.8689083536667e-17
  62    -8.0661754745557e-16
 Sym= A
 Ene=               0
 Spin= Alpha
 Occup=    0.07465
   1    -3.0362606303435e-16
   2    4.9491890428878e-17
   3    -9.563471117467e-17
   4    -1.7146210116704e-16
   5    2.8157928069791e-15
   6    -2.6915893432552e-16
   7    4.9568742059544e-17
   8     -0.23065723868332
   9    1.6201702869025e-15
  10    5.2012621221553e-16
  11    -0.095449002972902
  12    -3.7241712601864e-17
  13    3.2892310120632e-16
  14    -1.13872107101e-15
  15    2.5633597328852e-16
  16    -3.959754229421e-16
  17      0.35055014450559
  18    2.1320447229658e-15
  19    1.9838453218755e-16
  20      0.23761124200794
  21    7.040816396143e-17
  22    -4.7019103636765e-16
  23    1.6129152916888e-15
  24    3.609806325462e-16
  25    -5.8609986447892e-16
  26     -0.43506173220262
  27    3.1413366383352e-15
  28    9.2873350713004e-16
  29     -0.44169697646272
  30    2.9545596148755e-16
  31    8.2690774662412e-16
  32    7.4092762390284e-17
  33    7.043010786246e-16
  34    -5.1433676331791e-15
  35    -2.2345737241188e-16
  36    -1.2014655430598e-16
  37      0.43506173223714
  38    1.1199753039536e-15
  39    1.8790683049834e-15
  40      0.44169697643065
  41    -1.2525206136493e-16
  42    8.8216875743079e-17
  43    -5.3421041999293e-17
  44    -2.921248363542e-16
  45    2.4566959126128e-15
  46    -1.9218552132333e-16
  47    -1.0236302905964e-17
  48     -0.35055014450875
  49    3.5538009653212e-17
  50    8.2364800166521e-16
  51     -0.23761124199955
  52    -8.4734424714057e-18
  53    1.2154721138282e-17
  54    -5.5638680621712e-16
  55    2.0489348079364e-16
  56    7.8875035622998e-17
  57      0.23065723868419
  58    5.7607946692446e-16
  59    3.5601428124016e-16
  60     0.095449002973784
  61    6.4882272580349e-17
  62    -8.5123247399091e-16
 Sym= A
 Ene=    0.1939164214
 Spin= Alpha
 Occup=    0.00000
   1    -0.028925182602204
   2      -0.8720351825107
   3    -0.033124027195676
   4     0.032118287088031
   5      0.58074055454329
   6    -0.001669464721154
   7     -0.19070497748361
   8    1.1363354441864e-16
   9     0.035079040601892
  10      -0.4178391155668
  11    1.9732890112986e-17
  12    -0.018482374768566
  13     0.025617489987898
  14      0.24985930117935
  15     0.058280481709864
  16     0.020468372555575
  17    -4.5700602192738e-17
  18      0.12815857668697
  19     0.074461655850051
  20    -1.2381768969382e-16
  21    -0.032996137142315
  22     0.038574555106523
  23      0.49899817863164
  24     0.072099072724865
  25     -0.15838119532224
  26    8.1127515481969e-17
  27      0.11241277315922
  28     -0.46200888360433
  29    -1.1298637113766e-16
  30    -0.015607107095033
  31     -0.82148442026819
  32     0.032996137142127
  33    -0.038574555106199
  34     -0.49899817862961
  35     0.072099072724886
  36     -0.15838119532244
  37    7.6852478133501e-17
  38      0.11241277316011
  39      -0.4620088836046
  40    1.1186970614202e-16
  41     0.015607107094739
  42      0.82148442026655
  43     0.018482374768662
  44    -0.025617489988109
  45     -0.24985930118036
  46     0.058280481710378
  47     0.020468372555807
  48    -5.241827832376e-17
  49      0.12815857668785
  50     0.074461655850325
  51    -6.6624754434649e-17
  52     0.033124027195936
  53    -0.032118287088534
  54     -0.58074055454671
  55    -0.0016694647210521
  56     -0.19070497748488
  57    2.7652628955235e-17
  58     0.035079040602366
  59     -0.41783911556898
  60    3.9680085906835e-17
  61     0.028925182602415
  62       0.8720351825154
 Sym= A
 Ene=    0.2239138457
 Spin= Alpha
 Occup=    0.00000
   1    -0.045178026938381
   2        -1.16759762753
   3     -0.05219784064326
   4     0.060112471745506
   5      0.91127409611087
   6      0.02972662472424
   7     -0.21584616922918
   8    2.2386289377487e-17
   9      0.15482324559447
  10     -0.48239794634522
  11    1.5667017800756e-17
  12    -0.006980037707906
  13    -0.0070737598821253
  14      0.22287203959194
  15     0.049584970834877
  16     0.045180252082529
  17    6.5477310297737e-17
  18      0.26946277306058
  19     0.099552760583488
  20    -1.3751424572197e-16
  21     0.000652041379007
  22    -0.023089943716123
  23     0.077522227634605
  24    -0.0015529255769093
  25     -0.10782837931947
  26    1.2810020324173e-16
  27      0.23100528379194
  28     -0.57244936074121
  29    -3.7035113964215e-17
  30     0.043748280186171
  31     -0.39333825541354
  32    0.00065204137932013
  33    -0.023089943716517
  34     0.077522227630938
  35    0.0015529255769612
  36      0.10782837931842
  37    -2.0090414245226e-17
  38     -0.23100528379337
  39      0.57244936073747
  40    -2.4892381348556e-17
  41     0.043748280186443
  42     -0.39333825540618
  43    -0.0069800377078913
  44    -0.0070737598820398
  45      0.22287203959091
  46    -0.049584970835063
  47    -0.045180252082837
  48    1.0899542635514e-17
  49     -0.26946277306112
  50    -0.099552760583267
  51    9.2031384158377e-17
  52    -0.052197840643322
  53     0.060112471745884
  54      0.91127409611079
  55    -0.029726624724526
  56      0.21584616922922
  57    2.8156100348892e-17
  58     -0.15482324559521
  59       0.4823979463443
  60    -1.168249461654e-16
  61    -0.045178026938399
  62      -1.1675976275285
 Sym= A
 Ene=    0.2845125716
 Spin= Alpha
 Occup=    0.00000
   1    -0.049131257105961
   2     -0.25317730559559
   3    -0.024781903210477
   4     0.058363863190712
   5      0.28310520320085
   6     0.031196785974785
   7    0.0076813932508828
   8    1.8817820292777e-16
   9     0.072296902689607
  10    -0.019998633320768
  11    -6.6371765029223e-17
  12    -0.0042476673157291
  13     0.012551347034125
  14    -0.0096928050870195
  15      0.10401854406805
  16     -0.12285826874689
  17    -1.7540803328359e-16
  18      0.18811647976034
  19     -0.19090143246792
  20    -4.6339602435198e-17
  21     0.068637350834841
  22    -0.059123669143094
  23      -1.3893530608572
  24     0.082543770557568
  25      0.16094638030888
  26    2.3772638097179e-16
  27      0.23495980089282
  28      0.89786893276769
  29    1.2201968658407e-16
  30     0.033206875368081
  31       1.6167597242124
  32     0.068637350834712
  33    -0.059123669142396
  34      -1.3893530608624
  35    -0.082543770557214
  36     -0.16094638030805
  37    3.1571279919129e-16
  38     -0.23495980088402
  39     -0.89786893276064
  40    -6.5407393300675e-16
  41     0.033206875367611
  42       1.6167597242026
  43    -0.0042476673155844
  44      0.01255134703397
  45    -0.0096928050905903
  46     -0.10401854406784
  47      0.12285826874736
  48    -9.2105271792896e-17
  49     -0.18811647976238
  50      0.19090143246596
  51    9.4437491118327e-17
  52    -0.024781903210205
  53     0.058363863190351
  54      0.28310520319875
  55    -0.031196785974818
  56    -0.0076813932523218
  57    -2.7523196788722e-16
  58    -0.072296902690295
  59     0.019998633316606
  60    3.9153668251602e-16
  61     -0.04913125710568
  62     -0.25317730558839
 Sym= A
 Ene=    0.2922321773
 Spin= Alpha
 Occup=    0.00000
   1     0.044904403511678
   2      0.80119895713228
   3      0.04095621208844
   4    -0.070327228323178
   5     -0.53347343737859
   6    -0.025798353814212
   7      0.12192901845229
   8    -6.4134916003931e-18
   9    -0.083742337338903
  10      0.31230287768876
  11    -2.8266637970498e-16
  12     0.013883192504465
  13    -0.034053251164094
  14     -0.15443131380241
  15    -0.089882420486674
  16    -0.012150262010522
  17    2.695249056584e-17
  18    -0.090856258631857
  19      0.12623306560926
  20    3.4608185682021e-16
  21    -0.054486565424993
  22     0.070127859975382
  23      0.54585312572253
  24    -0.042579650951696
  25     -0.13904269516318
  26    -1.4916237436117e-16
  27     -0.54159569738784
  28     -0.66453075863611
  29    -2.8224116411624e-16
  30    -0.075619624930658
  31      -1.3937918521711
  32     0.054486565425551
  33    -0.070127859975639
  34     -0.54585312573455
  35     -0.04257965095256
  36     -0.13904269516479
  37    -1.0539953220305e-16
  38     -0.54159569739079
  39     -0.66453075864255
  40    3.2883951834926e-16
  41     0.075619624930639
  42       1.3937918521827
  43    -0.013883192504585
  44     0.034053251164439
  45       0.1544313138034
  46    -0.089882420487761
  47    -0.012150262009458
  48    -1.9757418115773e-17
  49    -0.090856258634001
  50      0.12623306561173
  51     2.90563510628e-17
  52    -0.040956212088503
  53     0.070327228323749
  54      0.53347343737767
  55    -0.025798353814509
  56      0.12192901845165
  57    6.0342144893057e-17
  58    -0.083742337339149
  59      0.31230287768667
  60    -1.6055837618489e-16
  61    -0.044904403511936
  62     -0.80119895712925
 Sym= A
 Ene=    0.3523068964
 Spin= Alpha
 Occup=   -0.00000
   1    -0.0086104616129921
   2      0.55882551273351
   3     0.042166253716876
   4    -0.044482712231755
   5      -1.0691875689297
   6     -0.10836802277883
   7    -0.0020537965701368
   8    -2.3624737042606e-16
   9     -0.60372037159279
  10    -0.026805889366495
  11    6.5616073341769e-16
  12    -0.092896072141257
  13      0.14243973973151
  14       1.7766521163598
  15      0.09315102101953
  16     -0.15530903556469
  17    2.5512656109429e-17
  18    -0.061696908319793
  19     -0.78720936803916
  20    -6.6677747088172e-16
  21      0.03409473843401
  22    -0.061559961612365
  23      0.36819335352404
  24      0.11124342476966
  25    -0.083747351156426
  26    2.6623136025709e-17
  27       1.5828566967005
  28      0.18969827240435
  29    6.7439096441289e-16
  30    -0.056571504616037
  31      0.15253241098535
  32    -0.034094738434318
  33     0.061559961612376
  34     -0.36819335351888
  35      0.11124342477038
  36     -0.08374735115669
  37    3.6142889758769e-16
  38       1.5828566967047
  39      0.18969827240172
  40    -7.3818751576776e-16
  41     0.056571504615582
  42     -0.15253241098532
  43     0.092896072141801
  44     -0.14243973973278
  45      -1.7766521163705
  46     0.093151021019789
  47     -0.15530903556586
  48    1.0441246052878e-16
  49    -0.061696908321304
  50     -0.78720936804331
  51     2.49783649353e-17
  52    -0.042166253717076
  53     0.044482712231781
  54       1.0691875689358
  55     -0.10836802277963
  56    -0.002053796570462
  57    1.6129385329377e-16
  58     -0.60372037159748
  59    -0.026805889368165
  60    -9.8552063524752e-17
  61    0.0086104616130582
  62     -0.55882551273394
 Sym= A
 Ene=    0.4750197543
 Spin= Alpha
 Occup=   -0.00000
   1    -0.026902293545556
   2      0.59857267405002
   3     0.036664994649699
   4     0.018411053828899
   5      -1.0126974109417
   6    -0.016385686347351
   7    0.0059822737315568
   8    -7.6401966657893e-16
   9     -0.69098350310993
  10     0.015347649402018
  11    1.2273373833468e-15
  12    -0.086868963562012
  13     0.090046702260552
  14       2.7323888496778
  15    -0.018862207401096
  16     -0.16684397426331
  17    -6.5786360340356e-17
  18      0.54175470583205
  19     -0.97936678485841
  20    -8.5866628732329e-16
  21     0.036865367702615
  22      0.13445602264949
  23       -1.407871273884
  24      0.11853954654197
  25     -0.13792296256672
  26    -5.7201833797772e-16
  27       1.7685693199703
  28       -1.818399111478
  29    7.108935115807e-16
  30        0.132825174185
  31     -0.90973382571845
  32      0.03686536770294
  33      0.13445602264898
  34      -1.4078712738988
  35     -0.11853954654113
  36      0.13792296256711
  37    -1.4790634759925e-15
  38       -1.768569319953
  39       1.8183991114839
  40    1.6341892782862e-15
  41      0.13282517418517
  42     -0.90973382572101
  43    -0.086868963561845
  44      0.09004670226094
  45       2.7323888496717
  46     0.018862207401858
  47       0.1668439742635
  48    -1.9471950136788e-16
  49     -0.54175470583139
  50      0.97936678485442
  51    -3.9947149195941e-16
  52     0.036664994649714
  53     0.018411053828634
  54      -1.0126974109388
  55     0.016385686347768
  56    -0.0059822737313632
  57    -2.5473833972524e-16
  58      0.69098350310973
  59    -0.015347649400953
  60    3.4119281183076e-16
  61    -0.026902293545608
  62      0.59857267404632
 Sym= A
 Ene=    0.5280804982
 Spin= Alpha
 Occup=    0.00000
   1     0.079310120463873
   2      0.36803411084595
   3    -0.021882427243918
   4      0.11854906781804
   5      -0.1288911024852
   6      0.18058925064302
   7     0.049512235362565
   8    -1.026230945523e-15
   9      0.21357012364635
  10     0.065795440778847
  11    1.1633058890442e-15
  12     0.040085421633818
  13    -0.066987041791646
  14     -0.37753411185819
  15    -0.057863835481763
  16      0.10747934944897
  17    1.2725739889192e-16
  18     -0.30157161266515
  19    -0.093715625257684
  20    4.5332770851774e-17
  21     -0.13770818672645
  22      0.15373232413749
  23       4.2421343144542
  24     0.074290875488482
  25       0.1979126303902
  26    -9.1879141208127e-16
  27       2.5855469801192
  28       1.5837921303648
  29    8.3038165410003e-16
  30    -0.003964376366643
  31      0.32371467986381
  32       0.1377081867264
  33     -0.15373232413792
  34      -4.2421343144464
  35     0.074290875488152
  36      0.19791263039029
  37    3.333348680527e-16
  38       2.5855469801299
  39        1.583792130356
  40    -7.9061411361534e-16
  41    0.0039643763659335
  42     -0.32371467985946
  43    -0.040085421633715
  44     0.066987041792108
  45      0.37753411184724
  46    -0.057863835481556
  47      0.10747934944857
  48    -2.614050769084e-16
  49     -0.30157161265998
  50    -0.093715625262028
  51    6.2582673517504e-16
  52      0.02188242724391
  53     -0.11854906781913
  54      0.12889110248826
  55      0.18058925064435
  56     0.049512235363199
  57    5.7116967045803e-17
  58       0.2135701236449
  59     0.065795440780502
  60    -2.1286930259515e-16
  61    -0.079310120464014
  62     -0.36803411085003
 Sym= A
 Ene=    0.5801412003
 Spin= Alpha
 Occup=    0.00000
   1    -0.056861709630618
   2     -0.62657514737708
   3     0.052730752790649
   4    -0.096956935888014
   5      -1.4291765757825
   6     -0.14967115337637
   7     -0.19803804518199
   8    -1.9321040375274e-16
   9      -1.1270414409198
  10     -0.93494364470756
  11    1.5966380292625e-16
  12    -0.041566174536705
  13      0.10655374425551
  14      0.60272625279103
  15     -0.23639686247743
  16    -0.047012583602989
  17    -5.4093598133599e-16
  18      -1.7788956550953
  19     -0.24383187982776
  20    1.200599362444e-15
  21    -0.011747059076724
  22    -0.013164205233503
  23      0.33655087676686
  24     0.085589493541149
  25     0.043793969865725
  26    1.3191225667283e-15
  27     -0.89357136582225
  28       1.6232150280481
  29    -2.2866589855572e-15
  30    -0.037443738533726
  31       1.1813576243438
  32    -0.011747059077912
  33    -0.013164205233762
  34      0.33655087680753
  35     -0.08558949353728
  36    -0.043793969869117
  37    1.0035626184704e-15
  38       0.8935713658196
  39      -1.6232150280707
  40    -7.0833425859138e-16
  41    -0.037443738534366
  42       1.1813576243544
  43    -0.041566174536598
  44      0.10655374425471
  45      0.60272625280347
  46      0.23639686248611
  47      0.04701258360214
  48    -3.7315851165596e-16
  49       1.7788956551325
  50      0.24383187983189
  51    7.4088319648103e-16
  52     0.052730752791538
  53    -0.096956935889376
  54      -1.4291765758111
  55      0.14967115337817
  56      0.19803804518582
  57    -4.4171400853591e-17
  58       1.1270414409404
  59      0.93494364472618
  60    -1.507286697626e-16
  61    -0.056861709630512
  62     -0.62657514738768
 Sym= A
 Ene=    0.6182547809
 Spin= Alpha
 Occup=    0.00000
   1     0.012631871291324
   2      0.49431613974685
   3    -0.052439432079499
   4     0.086233471921511
   5       1.5172933510938
   6     0.082050800050019
   7      0.17275355693237
   8    2.8637556198906e-16
   9       1.1194403425288
  10      0.93612112132731
  11    -1.7523117737758e-16
  12     0.011626166121783
  13      0.02081863100293
  14     -0.88472650350636
  15      0.38064014649186
  16    -0.024577125070685
  17    -2.4415456282992e-16
  18       1.7839018235208
  19      0.25496049998671
  20    -6.6733960742387e-17
  21     0.037797478035737
  22     0.023638658772721
  23      -1.4260136044587
  24      0.19246228355676
  25     -0.12063376976683
  26    -1.030562538596e-15
  27     0.082471770971636
  28     -0.87396996228582
  29    1.1268687330113e-15
  30     0.046801852714045
  31     -0.43648324353355
  32    -0.037797478035567
  33    -0.023638658772885
  34       1.4260136044509
  35       0.1924622835597
  36     -0.12063376976655
  37    -1.154247661194e-15
  38     0.082471770952118
  39     -0.87396996225378
  40    1.1650178903816e-15
  41    -0.046801852713424
  42      0.43648324351149
  43    -0.011626166120651
  44    -0.020818631005782
  45      0.88472650349167
  46      0.38064014648812
  47    -0.024577125071477
  48    -1.7886688047846e-16
  49       1.7839018234828
  50      0.25496049998129
  51    -1.8748979493637e-16
  52     0.052439432078283
  53    -0.086233471919094
  54      -1.5172933510622
  55     0.082050800047122
  56      0.17275355692856
  57    1.5244265828926e-16
  58       1.1194403425043
  59      0.93612112130764
  60    -1.0912643590454e-17
  61     -0.01263187128979
  62     -0.49431613973495
 Sym= A
 Ene=     0.728179327
 Spin= Alpha
 Occup=   -0.00000
   1    -2.2062461236602e-15
   2    5.0463025367342e-15
   3    -1.0950793226752e-16
   4    1.1482502271409e-15
   5    8.1514466572024e-16
   6    7.3342571016578e-16
   7    2.5055386961716e-15
   8      0.11831651941804
   9    3.6013323553271e-16
  10    4.1215111484713e-16
  11     -0.14088141381483
  12    -4.4184607712131e-17
  13    5.5062976341315e-17
  14    5.9170823536346e-15
  15    -1.9537752093651e-15
  16    2.9994558513667e-15
  17      0.17338971972028
  18    9.3865979510044e-15
  19    -5.9536972412582e-15
  20     0.064288017215147
  21    -1.5526921207315e-16
  22    -8.8225717739902e-15
  23    6.871453687956e-15
  24    -1.8143598436701e-15
  25    -1.5325379712032e-15
  26       0.6949719861714
  27    1.2126273768386e-14
  28    -9.5938618300696e-15
  29     -0.66815255655518
  30    -1.2583233900275e-15
  31    -9.3676577007835e-15
  32    -6.7316491681999e-17
  33    -6.9860333079812e-15
  34    2.9241095215813e-15
  35    1.2769629482774e-15
  36    3.4003351294784e-16
  37      0.69497198625238
  38    -6.000694935506e-15
  39    9.9471179159331e-15
  40     -0.66815255678633
  41    -1.5153916142749e-15
  42    -7.190925285117e-15
  43    -1.5478051630832e-16
  44    6.8993797000814e-16
  45    6.2874967921844e-15
  46    2.417620117389e-15
  47    5.2652153363141e-16
  48       0.1733897197272
  49    -3.0959140410806e-15
  50    2.0313051460281e-15
  51     0.064288017313628
  52    1.7712992075729e-16
  53    -8.8246198228163e-16
  54    -7.3967953608536e-17
  55    4.3941497803547e-16
  56    -7.735945981197e-16
  57       0.1183165194594
  58    1.9761013138034e-15
  59    2.1731114771573e-15
  60     -0.14088141389249
  61    -8.7514442324277e-16
  62    5.1294692985325e-16
 Sym= A
 Ene=    0.7605773908
 Spin= Alpha
 Occup=   -0.00000
   1     0.011956198761057
   2     0.047454496919595
   3     0.010579896221922
   4     0.074173062935019
   5     -0.56694149502816
   6       0.1749475306217
   7     0.033249726206283
   8    1.7260953513295e-14
   9     -0.45896461179373
  10     -0.30725240265316
  11    -2.6733489463972e-14
  12     0.029786282969083
  13     -0.16012260723948
  14      0.40729193742969
  15     -0.22661577388521
  16     -0.09472467598946
  17    -2.0600543731427e-15
  18     -0.44137544534832
  19    -0.038622821039973
  20    3.078331710459e-14
  21    -0.037307784186141
  22     -0.55009316822595
  23      0.41249348216417
  24     -0.50283031534297
  25     -0.14920643271613
  26    3.5892526674933e-14
  27      0.57308576179238
  28      0.62523297225562
  29    -7.8630334343405e-14
  30      -0.1745003079644
  31      0.28818390184708
  32    -0.037307784185696
  33     -0.55009316822544
  34       0.4124934821509
  35      0.50283031534042
  36      0.14920643271969
  37    -4.4240883101082e-14
  38      -0.5730857617886
  39     -0.62523297225684
  40    8.6152964825942e-14
  41     -0.17450030796023
  42      0.28818390184745
  43     0.029786282969045
  44     -0.16012260723908
  45      0.40729193743198
  46      0.22661577388651
  47     0.094724675992603
  48    -6.3809573626014e-16
  49      0.44137544534207
  50     0.038622821039247
  51    -3.0065812334642e-14
  52     0.010579896221987
  53     0.074173062936113
  54     -0.56694149502772
  55     -0.17494753062364
  56    -0.033249726206998
  57    -1.8042319314422e-14
  58      0.45896461179709
  59      0.30725240265401
  60    2.7143215372378e-14
  61     0.011956198759248
  62     0.047454496921525
 Sym= A
 Ene=    0.7726330072
 Spin= Alpha
 Occup=   -0.00000
   1    2.3908678944513e-14
   2    -1.8173589487394e-14
   3    -2.3512353483834e-16
   4    -8.3653147065588e-15
   5    -1.952244243774e-14
   6    -1.6096500206483e-14
   7    -4.0925344875698e-15
   8     -0.29293691718564
   9    2.3829533928084e-14
  10    4.7766418643883e-15
  11      0.43319852810137
  12    1.9499006193706e-15
  13    -1.8479045121729e-14
  14    1.2192962324392e-14
  15    6.7532143090655e-15
  16    2.4419668261466e-14
  17    -0.0072886548674151
  18    -6.0895833614254e-14
  19    -1.1924011243276e-14
  20     -0.44633697256849
  21    -4.5646572775936e-15
  22    -3.9983017514596e-14
  23    7.7388806906332e-14
  24    -5.7802381943565e-14
  25    2.9955135764506e-14
  26     -0.61676729662068
  27    5.5007376231906e-14
  28    -2.3235172685345e-14
  29       1.2521450669612
  30    -6.0106924125815e-14
  31    3.1492070924817e-15
  32    -9.6940788824511e-16
  33    -1.4727385327156e-14
  34    -4.6054837586475e-14
  35    1.6999401574202e-14
  36    4.0584619532869e-14
  37      0.61676729650466
  38    -3.3233126984782e-14
  39    -9.5493684187506e-14
  40      -1.2521450668568
  41    4.0919419164414e-14
  42    3.6779677926944e-14
  43    2.3135156627043e-15
  44    -6.9563348389275e-16
  45     5.82984042667e-14
  46    3.8320930924636e-14
  47    2.8397317338572e-14
  48     0.007288654835995
  49    1.7317599898727e-16
  50    2.567065547227e-15
  51      0.44633697257124
  52    1.3633844655209e-15
  53    2.3057798028745e-14
  54    -6.7166427108914e-14
  55    -4.5794776640629e-14
  56    -9.1862492145242e-15
  57      0.29293691716085
  58    9.4264175439714e-14
  59    4.8532682455643e-14
  60     -0.43319852808113
  61    -2.0551381822011e-14
  62    2.354790480022e-14
 Sym= A
 Ene=     0.808398411
 Spin= Alpha
 Occup=    0.00000
   1      -0.1934220823538
   2      0.16626095599728
   3    0.0060389248428862
   4      0.13244968753106
   5     -0.21138121820859
   6      0.25319847266141
   7     0.058454568303513
   8    -3.8727299303974e-14
   9     -0.49032883247118
  10     -0.24036164250346
  11    5.8466000430387e-14
  12    0.0022236350407272
  13     0.059782315930373
  14      0.19476324847098
  15     -0.18053199300908
  16     -0.22275781195784
  17    2.4983929896881e-15
  18      0.22207089975371
  19      0.04623550698546
  20    -6.1861464877655e-14
  21     0.015505175243273
  22     0.084226170048832
  23     -0.45720997074149
  24      0.17131063952824
  25     -0.30250517370592
  26    -7.6542049441929e-14
  27    -0.099134052434344
  28      0.51211919689251
  29    1.5790723497632e-13
  30      0.41517905924903
  31        0.140540414786
  32    -0.015505175243708
  33    -0.084226170050879
  34      0.45720997073803
  35      0.17131063953556
  36     -0.30250517370543
  37    7.6687419835931e-14
  38    -0.099134052445129
  39      0.51211919688569
  40    -1.5709244465132e-13
  41     -0.41517905924977
  42     -0.14054041478053
  43    -0.0022236350404279
  44    -0.059782315931728
  45     -0.19476324846206
  46     -0.18053199300701
  47     -0.22275781195828
  48    -5.7075061763736e-16
  49      0.22207089975985
  50     0.046235506989271
  51    5.7981561496621e-14
  52    -0.0060389248428547
  53     -0.13244968752921
  54       0.2113812181989
  55      0.25319847265887
  56     0.058454568303379
  57    3.7215641930753e-14
  58     -0.49032883246482
  59     -0.24036164250058
  60    -5.5392745482634e-14
  61      0.19342208235474
  62     -0.16626095599625
 Sym= A
 Ene=    0.8414879616
 Spin= Alpha
 Occup=   -0.00000
   1      0.19192256414346
   2    0.0045476159809777
   3    -0.0076293259888704
   4      0.21883116643451
   5     -0.46550755030088
   6      0.18113436159687
   7    -0.028066214325565
   8    3.125274726554e-15
   9     -0.22983461053611
  10    -0.005190504219018
  11    -5.4759754156992e-15
  12     0.020248094143659
  13     0.059484199900484
  14      0.46835322387633
  15     -0.10498368891138
  16      0.17790016491298
  17    -7.859914425573e-16
  18      -0.1551285577515
  19     -0.16432824582703
  20    8.171419286275e-15
  21     -0.02516678401277
  22      0.88085321034654
  23      -1.1337072044941
  24      -0.4423056332553
  25       0.3192977557033
  26    1.0405046764877e-14
  27      0.54137015702069
  28     -0.10699552180102
  29    -2.0067333283397e-14
  30      0.17013061591091
  31      0.28415834046666
  32    -0.025166784012288
  33      0.88085321034982
  34      -1.1337072045183
  35      0.44230563325761
  36     -0.31929775570172
  37    -5.3227175973229e-15
  38     -0.54137015701535
  39      0.10699552180637
  40    1.5684230223267e-14
  41      0.17013061591356
  42      0.28415834046551
  43     0.020248094143571
  44     0.059484199902439
  45      0.46835322387885
  46      0.10498368891211
  47     -0.17790016491339
  48    3.9740488309988e-15
  49       0.1551285577447
  50        0.164328245828
  51    -9.8433754308353e-15
  52    -0.0076293259889062
  53      0.21883116643642
  54     -0.46550755030069
  55     -0.18113436159873
  56     0.028066214324774
  57    -8.436671637964e-16
  58      0.22983461053819
  59    0.0051905042185598
  60    3.4090248802201e-15
  61      0.19192256414288
  62    0.0045476159824551
 Sym= A
 Ene=    0.9263530426
 Spin= Alpha
 Occup=    0.00000
   1     -0.23745722373783
   2    -0.030615532363473
   3    0.0086911989603863
   4     -0.21462738109575
   5    -0.041139910041303
   6    -0.0074846938309816
   7     -0.11246244822771
   8    -2.5295750428045e-14
   9     -0.14674384616695
  10     -0.11804014645224
  11    2.9849809002736e-14
  12    0.0060115209605255
  13     -0.24442005353899
  14     -0.16411806493717
  15     0.069274311426928
  16     -0.13165473957043
  17    -9.2756303537259e-15
  18     -0.51765395847138
  19     0.046166762776437
  20    5.3444094532247e-15
  21    -0.052059306673138
  22     -0.51506575267786
  23       2.2444315650771
  24      0.71862664532944
  25     0.030868051701258
  26    1.0243338266788e-14
  27     -0.01059637922617
  28      0.56349406937745
  29    -1.6046561263437e-14
  30     -0.29164420590832
  31      0.15930461550537
  32     0.052059306673137
  33      0.51506575267301
  34      -2.2444315650732
  35      0.71862664532818
  36      0.03086805170338
  37    3.7503000353579e-15
  38    -0.010596379224627
  39      0.56349406937516
  40    1.4174068543377e-15
  41       0.2916442059061
  42      -0.1593046155043
  43    -0.0060115209607912
  44      0.24442005354115
  45      0.16411806493366
  46        0.069274311428
  47     -0.13165473957237
  48    -2.1068664995418e-15
  49     -0.51765395847327
  50      0.04616676277877
  51    -5.6573325392483e-15
  52    -0.008691198960455
  53      0.21462738109682
  54     0.041139910041969
  55    -0.0074846938283325
  56     -0.11246244823012
  57    -1.7855052187672e-14
  58     -0.14674384616894
  59     -0.11804014644931
  60    2.3427877919434e-14
  61      0.23745722373665
  62     0.030615532362394
 Sym= A
 Ene=    0.9310729333
 Spin= Alpha
 Occup=   -0.00000
   1    -3.6010950794768e-14
   2    -5.5917704441714e-15
   3    -1.8260915076587e-15
   4    1.6938715277408e-14
   5    -1.4319932837289e-14
   6    -9.7918525597722e-15
   7    2.6683130287798e-14
   8      0.63721400419048
   9    -8.2527546449366e-15
  10    -5.120555778663e-14
  11     -0.78799269683352
  12    -1.1376420189791e-15
  13    8.0409854411883e-15
  14    8.9398171311957e-15
  15    -1.9190214224268e-14
  16    4.1864571326332e-14
  17      0.16507776916686
  18    1.5408674731057e-14
  19    -5.0471930009004e-14
  20     0.017509426813787
  21    -3.9802856816563e-15
  22    -3.1603615926528e-14
  23    8.2830802853158e-14
  24    3.6571571089892e-14
  25    1.413827311819e-16
  26     -0.18726506186684
  27    1.1216393255744e-14
  28    9.5317748437155e-15
  29      0.19332703768758
  30    -2.5034035305617e-14
  31    7.5400019314544e-15
  32    3.5775925724017e-15
  33    1.3768672434649e-14
  34    -7.0379381782081e-14
  35    3.3703241440551e-14
  36    -1.1905917081401e-14
  37     -0.18726506186043
  38    3.0918796629599e-15
  39    5.2370465189693e-14
  40      0.19332703774365
  41    2.1556885339793e-14
  42    -3.0350209373774e-14
  43    7.069490802859e-16
  44    -3.2665572504111e-16
  45    1.4904098332165e-14
  46    -9.9464079486347e-15
  47    1.3435319462857e-14
  48      0.16507776923957
  49    -5.4463340983996e-15
  50    -1.9852368843368e-14
  51      0.01750942669866
  52    5.9635664822154e-16
  53    -3.5257253900868e-15
  54    3.6667270797789e-15
  55    -1.4272096067168e-14
  56    1.3423154364772e-14
  57      0.63721400422104
  58    5.7921385384237e-15
  59    -2.7319407366124e-14
  60     -0.78799269682912
  61    1.4374308484246e-14
  62    8.2169366431988e-15
 Sym= A
 Ene=     0.947000185
 Spin= Alpha
 Occup=   -0.00000
   1    1.023000774415e-13
   2    1.0274950414199e-13
   3    1.4099804292946e-14
   4    -1.984128573302e-13
   5    1.0895318486892e-13
   6    1.7008451158777e-13
   7    -2.651611880728e-13
   8      -0.3764021182816
   9    -8.4296121035535e-14
  10    3.6868850277002e-13
  11      0.23130713905648
  12    1.3299550295629e-14
  13    -1.5714323237244e-13
  14    -5.2606265570261e-14
  15    1.8511317423018e-13
  16    -3.1779908470206e-13
  17     -0.56521663787109
  18    -2.1440307741572e-13
  19    3.6710915028472e-13
  20      0.77353584590073
  21    1.4146851373847e-14
  22    1.0413316304888e-13
  23    -6.7201462667379e-15
  24    -3.2770532191677e-14
  25    -1.2323143779939e-15
  26      0.13182340934212
  27    -1.5064738507867e-13
  28    3.412074954217e-14
  29     -0.63625546835838
  30    9.8753778873262e-14
  31    -5.2217489964496e-14
  32    -1.9489316229918e-15
  33    3.8201048671265e-14
  34    1.2506639443505e-13
  35    -7.5404005770463e-14
  36    6.0963765174473e-14
  37     -0.13182340931267
  38    7.0802631036567e-14
  39    -1.8010894295345e-13
  40      0.63625546833354
  41    1.2539020700973e-15
  42    6.2206575082029e-14
  43    2.6601502875796e-15
  44    -5.3953115653386e-14
  45    -8.1269845610359e-14
  46    -4.5716377057554e-14
  47    8.8657629376557e-14
  48      0.56521663786216
  49    6.1131973770923e-14
  50    -9.4972304425716e-14
  51     -0.77353584591365
  52    3.6718440293366e-15
  53    -6.6969915738482e-14
  54    5.7315882495729e-14
  55    -3.2163119838632e-14
  56    6.6813454748987e-14
  57      0.37640211820698
  58    7.7882552459273e-15
  59    -8.6040259860809e-14
  60     -0.23130713896367
  61    1.6739588711617e-15
  62    2.8703449415155e-14
 Sym= A
 Ene=    0.9619047321
 Spin= Alpha
 Occup=   -0.00000
   1        0.183601139171
   2      0.10124000107063
   3     0.018694234009195
   4     -0.22567552599086
   5      0.09687830467376
   6      0.20497701751201
   7     -0.32425657721993
   8    1.4636381104735e-13
   9     -0.10308961181715
  10      0.45363292763465
  11    -1.0479155534689e-13
  12     0.017510475328265
  13      -0.1724045084585
  14     0.014280503575823
  15      0.22919382303812
  16     -0.41578265689661
  17    1.9187786832199e-13
  18     -0.28091222135476
  19      0.49937266414372
  20    -2.4746449047284e-13
  21     0.025381085970574
  22     0.090512012875509
  23     -0.10135469737003
  24     -0.15464856793514
  25      0.11436922391703
  26    -3.794289257139e-14
  27      -0.1335236872991
  28     -0.23396386873132
  29    1.8852049033733e-13
  30      0.16075726178673
  31     -0.20037926965454
  32    -0.025381085975257
  33    -0.090512012934989
  34      0.10135469732387
  35      -0.1546485679213
  36      0.11436922389574
  37    1.4039232811316e-14
  38      -0.1335236873827
  39     -0.23396386865446
  40    -1.6703499985324e-13
  41     -0.16075726182734
  42      0.20037926965515
  43    -0.017510475334856
  44      0.17240450854401
  45    -0.014280503531153
  46      0.22919382312879
  47     -0.41578265705868
  48    -1.7284298986796e-13
  49     -0.28091222146548
  50      0.49937266432874
  51    2.6375796748018e-13
  52    -0.018694234016291
  53      0.22567552609537
  54    -0.096878304735789
  55      0.20497701759492
  56     -0.32425657735231
  57    -4.612612785874e-14
  58     -0.10308961185755
  59      0.45363292781282
  60    -2.3524226988468e-14
  61     -0.18360113921099
  62     -0.10124000112414
 Sym= A
 Ene=    0.9647326544
 Spin= Alpha
 Occup=   -0.00000
   1    -0.098467309900544
   2     -0.14811593374214
   3    -0.018465315585776
   4       0.2774184901366
   5     -0.16331583269752
   6     -0.22842524102422
   7       0.3528100281693
   8    -1.7871440133155e-13
   9      0.11775742398239
  10      -0.4774588788753
  11    9.8031738691577e-14
  12    -0.017639956069207
  13      0.22829263502602
  14      0.11425879756036
  15     -0.24162434541402
  16      0.41887732630749
  17    -2.9344998659645e-13
  18      0.28823701953547
  19     -0.47584351786185
  20    4.0171841543663e-13
  21    -0.012284219381487
  22     -0.14916589600559
  23      -0.1255196098087
  24    -0.039606435436848
  25     0.056857533656983
  26    5.0099365564117e-14
  27      0.22320595707518
  28     -0.20422283208438
  29    -2.9624707622592e-13
  30     -0.10838961717915
  31      0.00335196626727
  32    -0.012284219372156
  33     -0.14916589597483
  34     -0.12551960983879
  35     0.039606435490382
  36    -0.056857533700769
  37    -4.8995623355132e-14
  38     -0.22320595702219
  39      0.20422283217278
  40    2.9421680105181e-13
  41     -0.10838961711969
  42    0.0033519661904683
  43    -0.017639956062518
  44      0.22829263495891
  45      0.11425879756585
  46      0.24162434532631
  47     -0.41887732615074
  48    2.8258002008596e-13
  49     -0.28823701942856
  50       0.4758435176747
  51    -4.0229854584771e-13
  52    -0.018465315578656
  53      0.27741849004903
  54     -0.16331583265975
  55      0.22842524094485
  56     -0.35281002804493
  57    1.4520334684762e-13
  58     -0.11775742394054
  59      0.47745887870147
  60    -5.7115838916505e-14
  61    -0.098467309833218
  62     -0.14811593370269
 Sym= A
 Ene=    0.9873368913
 Spin= Alpha
 Occup=    0.00000
   1     -0.43407492233244
   2      0.31143262917849
   3    -0.016700004343238
   4    -0.00030569321425721
   5     -0.11689753380263
   6      0.54330412566262
   7     -0.13739328348617
   8    -4.8843298301902e-14
   9     -0.59384703341309
  10      0.13396465674228
  11    6.7508241491487e-14
  12     0.018091566386436
  13     -0.12203795821775
  14      0.27510508100574
  15      0.12938304593287
  16      0.39515795125346
  17    5.3246896829339e-15
  18     0.093444336742398
  19     -0.44532305523207
  20    -1.7280013984674e-14
  21    -0.0060941957820021
  22     -0.18023557262743
  23      0.14653490567944
  24     0.099463595127372
  25     0.045683607622942
  26    3.9276883027246e-14
  27     -0.16474460110299
  28    -0.082627160727591
  29    -5.4064040071398e-14
  30     0.032420875639511
  31     -0.13269274960796
  32    -0.0060941957813717
  33     -0.18023557262465
  34      0.14653490560717
  35    -0.099463595118383
  36    -0.045683607623232
  37    -3.1971696854027e-14
  38      0.16474460112448
  39     0.082627160759197
  40    3.3440879554821e-14
  41     0.032420875636017
  42     -0.13269274961824
  43     0.018091566387267
  44     -0.12203795822591
  45      0.27510508103695
  46     -0.12938304594352
  47     -0.39515795127647
  48    -3.861154748586e-14
  49     -0.09344433675373
  50      0.44532305526085
  51    6.6002085747286e-14
  52    -0.016700004343666
  53    -0.00030569321974341
  54      -0.1168975338068
  55     -0.54330412569593
  56      0.13739328349932
  57    3.3167418810818e-14
  58      0.59384703344813
  59     -0.13396465676415
  60    -6.4541770206121e-14
  61     -0.43407492234861
  62      0.31143262919663
 Sym= A
 Ene=    0.9975065118
 Spin= Alpha
 Occup=   -0.00000
   1    -3.9783200868616e-14
   2    2.9292789941751e-14
   3    -2.542596603918e-15
   4    1.4816665657354e-15
   5    4.7299487361082e-15
   6    5.5005031388418e-14
   7    -3.1725475777947e-15
   8     -0.46090316534492
   9    -5.8706568684591e-14
  10    3.2265481741706e-14
  11      0.79394155206982
  12    7.2529807372239e-18
  13    -7.2911594798359e-16
  14    1.0021550752906e-13
  15    2.5552783235707e-15
  16    1.0087008749007e-13
  17      0.35130338454891
  18    8.9025067462609e-14
  19    -1.2264775608874e-13
  20      -0.6459182227014
  21    6.393076383895e-16
  22    1.0478892161434e-14
  23    -2.8906562506071e-13
  24    -3.5392730535049e-14
  25    6.0283304765356e-15
  26      0.38189133211191
  27    -4.1567483278358e-14
  28    -1.5580330154722e-13
  29      -0.3710604123772
  30    -3.2578591163297e-14
  31    -3.9797413879345e-14
  32    -2.57577852563e-16
  33    -6.6406203818698e-15
  34    2.7345068738703e-13
  35    -1.4228193084995e-14
  36    -1.2045574485534e-14
  37     -0.38189133212572
  38    -1.0936815077469e-13
  39    -7.6601192211979e-14
  40      0.37106041241323
  41    2.1571770964177e-14
  42    1.7894095797971e-14
  43    -4.5666787787591e-15
  44    3.587608770464e-14
  45    -1.1107308792549e-13
  46    4.8140462167085e-14
  47    1.2940030717933e-13
  48     -0.35130338451872
  49    5.9073999266088e-14
  50    -1.528623777417e-13
  51      0.64591822263633
  52    4.2659732766675e-15
  53    1.1513803667808e-14
  54    2.0992358968056e-14
  55    1.6570780200467e-13
  56    -5.6826902956452e-14
  57      0.46090316536857
  58    -1.7133657411604e-13
  59    9.0589996673039e-14
  60      -0.7939415520682
  61    1.0777683241376e-13
  62    -9.8760515875335e-14
 Sym= A
 Ene=     1.002806209
 Spin= Alpha
 Occup=   -0.00000
   1      -0.3102940024147
   2      0.30966446127354
   3    -0.012098522105743
   4    -0.059905044030807
   5    -0.026491405624445
   6      0.53750369219115
   7      -0.1890216407351
   8    1.0282718993145e-13
   9     -0.54782706097038
  10      0.34381940976877
  11    -1.6454275029403e-13
  12     0.013533317546238
  13     -0.11342564855606
  14      0.48184827818568
  15      0.15094939545345
  16      0.44271111131763
  17    -5.5567507421451e-14
  18       0.2820915509765
  19     -0.53415124754562
  20    1.0460383264691e-13
  21    0.0055442312469203
  22     0.050589325708691
  23      -1.2562299095429
  24     -0.12452206802724
  25     0.002315371190611
  26    -9.0182653241662e-14
  27     -0.35888263006221
  28     -0.54535285625965
  29    1.0345466666906e-13
  30    -0.091010511119587
  31     -0.15983828006305
  32    -0.0055442312472958
  33    -0.050589325717605
  34       1.2562299095527
  35     -0.12452206803268
  36    0.0023153711843397
  37    8.5494532342243e-14
  38     -0.35888263005334
  39     -0.54535285624239
  40    -8.56358291746e-14
  41     0.091010511121885
  42      0.15983828004787
  43    -0.013533317544971
  44      0.11342564854884
  45     -0.48184827816921
  46      0.15094939544794
  47      0.44271111129397
  48    8.1576442093498e-14
  49      0.28209155096408
  50      -0.5341512475225
  51    -1.5610349918661e-13
  52     0.012098522104525
  53      0.05990504403241
  54     0.026491405622422
  55      0.53750369215996
  56      -0.1890216407288
  57    -1.157147700029e-13
  58     -0.54782706093826
  59      0.34381940976334
  60    1.9722140940225e-13
  61      0.31029400238709
  62     -0.30966446125549
 Sym= A
 Ene=     1.050840711
 Spin= Alpha
 Occup=   -0.00000
   1    7.0066772007809e-15
   2    -6.2780170485188e-15
   3    7.2446342761601e-16
   4    -8.6439654454652e-15
   5    3.5252602782832e-14
   6    1.9976639462327e-15
   7    3.8226875324979e-15
   8      0.11723591001923
   9    4.2317739727757e-15
  10    8.5204630500162e-15
  11     -0.51267232145584
  12    -2.7716122379728e-16
  13    5.9588838480737e-15
  14    1.5635284816547e-14
  15    -7.105190180013e-15
  16    2.517636354775e-15
  17     -0.62799926155978
  18    4.6516212587686e-14
  19    4.0637867814955e-15
  20         1.12337554128
  21    7.6934808502037e-16
  22    -1.1982086305146e-14
  23    -2.5094885542529e-14
  24    -2.9981745717075e-15
  25    2.7696685426571e-14
  26     0.092481338033902
  27    -4.4375888147454e-15
  28    -1.1760085845869e-13
  29     -0.38503182015414
  30    4.2663129915536e-15
  31    -7.1125786734893e-14
  32    1.7683263299856e-16
  33    -6.4797530359457e-15
  34    6.5848477651706e-14
  35    2.3551571603901e-15
  36    -5.8337797239601e-15
  37     0.092481337999279
  38    -4.7089125002546e-14
  39    3.0448562528199e-14
  40     -0.38503182012288
  41    7.2849938755556e-16
  42    -1.9708868338361e-14
  43    -1.0060058259123e-15
  44    4.1602278130959e-15
  45    -7.5550038617616e-15
  46    8.5622429020804e-15
  47    2.0168312500722e-14
  48     -0.62799926157245
  49    -6.7328794198488e-15
  50    -1.5416292491481e-14
  51       1.1233755413013
  52    1.4675606466998e-15
  53    -9.7016300229351e-15
  54    1.8712284025795e-14
  55    2.6774332413242e-14
  56    8.147710484627e-17
  57      0.11723591004844
  58    -3.2613274583828e-14
  59    -1.2002573340354e-14
  60     -0.51267232149334
  61    2.8638497638499e-14
  62    -1.2658398796602e-14
 Sym= A
 Ene=     1.069899831
 Spin= Alpha
 Occup=   -0.00000
   1      0.16777913949006
   2      0.17876633909584
   3    -0.0074939986640938
   4      0.15817051606366
   5     -0.84537202706427
   6    -0.046569003382854
   7     -0.16300102074134
   8    2.6097786974173e-15
   9     -0.10766428655818
  10      0.33725900753565
  11    -5.7502086394629e-15
  12    -0.020704612568746
  13      0.16621979458364
  14     -0.58019903693717
  15      0.22132336760245
  16      0.21702737929964
  17    -3.4988633769142e-15
  18     -0.88257517433537
  19     -0.66312977542977
  20    8.7787434645581e-15
  21    -0.017106290125843
  22      0.23051507761853
  23      -1.0332880495184
  24     -0.04214075243456
  25     -0.69894677526233
  26    4.1565617526519e-15
  27     -0.16111891846949
  28       2.7219197392423
  29    -6.7223748309794e-15
  30     -0.12201947136733
  31       1.7921718677254
  32    -0.017106290125939
  33      0.23051507761729
  34      -1.0332880495077
  35     0.042140752431908
  36      0.69894677526244
  37    -1.7623597028208e-15
  38       0.1611189184686
  39      -2.7219197392479
  40    -5.9400512885602e-15
  41     -0.12201947136477
  42       1.7921718677251
  43    -0.020704612568903
  44      0.16621979458452
  45      -0.5801990369404
  46     -0.22132336760167
  47     -0.21702737929797
  48    -1.5385326786466e-14
  49      0.88257517433932
  50      0.66312977542975
  51    2.9200814565246e-14
  52    -0.0074939986638928
  53      0.15817051606318
  54     -0.84537202706686
  55     0.046569003385355
  56      0.16300102074169
  57    9.7367449227061e-15
  58      0.10766428655724
  59      -0.3372590075362
  60    -2.1359464387823e-14
  61      0.16777913949252
  62      0.17876633909528
 Sym= A
 Ene=     1.096603627
 Spin= Alpha
 Occup=   -0.00000
   1     0.026324118166513
   2      0.35993833312169
   3    -0.0046781230657896
   4     0.052832545723548
   5     -0.68821196960963
   6     -0.18634532323588
   7     -0.30904006316374
   8    5.8450807013684e-15
   9     0.092090899427465
  10      0.43050782022333
  11    -1.2545254429215e-14
  12    -0.012216471437334
  13      -0.1337142428624
  14      0.10259510028106
  15     0.057444291957706
  16     0.068051343671712
  17    -7.4611366195995e-15
  18     -0.59557375233042
  19     -0.60110991065463
  20    1.6040879541585e-14
  21    -0.011011462431102
  22      0.29328072126033
  23      0.58873094513792
  24    -0.092130730029533
  25     -0.71092664743712
  26    8.8432141222042e-16
  27         1.06673893166
  28       1.8798329057564
  29    -3.854055224436e-15
  30     -0.23547231145331
  31       1.3918387841577
  32      0.01101146243099
  33     -0.29328072123056
  34     -0.58873094516684
  35    -0.092130730032132
  36     -0.71092664742334
  37    1.4583690534004e-15
  38       1.0667389316847
  39       1.8798329057125
  40    -8.4277938708968e-15
  41      0.23547231144654
  42      -1.3918387841255
  43     0.012216471438582
  44      0.13371424285432
  45     -0.10259510029253
  46     0.057444291959088
  47     0.068051343680446
  48    -1.3056640596604e-14
  49     -0.59557375232889
  50     -0.60110991068278
  51    2.2379021864973e-14
  52    0.0046781230645325
  53    -0.052832545714064
  54      0.68821196961406
  55      -0.1863453232371
  56     -0.30904006316919
  57    1.160622942316e-15
  58     0.092090899421793
  59      0.43050782024946
  60    -8.5661247389948e-15
  61    -0.026324118189676
  62     -0.35993833311779
 Sym= A
 Ene=     1.103595027
 Spin= Alpha
 Occup=   -0.00000
   1      0.60023760618557
   2     -0.20601564218815
   3      0.03247670892687
   4     -0.25969025021182
   5    -0.053751067814279
   6    0.0048645222409856
   7    -0.086158127454952
   8    1.9950783434013e-15
   9     -0.18423726240492
  10      0.55500498375734
  11    2.7418872162925e-15
  12     -0.02883160411675
  13      0.21016504794823
  14      0.19191048912199
  15     0.055191302548656
  16      0.20440849933893
  17    9.0523952648161e-15
  18    -0.024741266846358
  19     -0.64017222724896
  20    -1.6143941006319e-14
  21    0.0021877043470492
  22     -0.70708711418367
  23      0.73522316564256
  24     -0.03998783788993
  25      0.30727944717103
  26    -5.9042816367146e-15
  27      0.48074665396505
  28     -0.91693181352455
  29    1.1047994970601e-14
  30      0.14613329813225
  31     -0.68422388870895
  32    0.0021877043475764
  33     -0.70708711419747
  34      0.73522316562042
  35     0.039987837883462
  36     -0.30727944720015
  37    -9.6209820328711e-17
  38     -0.48074665391776
  39      0.91693181359917
  40    6.337914073871e-15
  41       0.1461332981452
  42     -0.68422388876725
  43    -0.028831604116445
  44      0.21016504795589
  45      0.19191048911204
  46    -0.055191302546023
  47     -0.20440849933639
  48    1.506300738316e-14
  49     0.024741266822112
  50      0.64017222722726
  51    -2.7981490751392e-14
  52     0.032476708927449
  53     -0.25969025021763
  54    -0.053751067782418
  55    -0.0048645222483707
  56     0.086158127442072
  57    -7.0172218491563e-15
  58       0.1842372624094
  59     -0.55500498374335
  60    1.7686889877429e-14
  61      0.60023760619098
  62     -0.20601564220748
 Sym= A
 Ene=     1.150747386
 Spin= Alpha
 Occup=    0.00000
   1      0.73592100442305
   2     -0.57169948417413
   3     0.044128677679666
   4     -0.43213951770944
   5      0.39363012601457
   6     0.068376914790276
   7     0.060830159351538
   8    1.9800921327804e-15
   9     -0.27497444101882
  10      0.41625668929049
  11    -3.305470405807e-15
  12    -0.023727551594242
  13       0.1744824484657
  14     -0.28544839343844
  15    -0.062642307604603
  16      0.18795192209115
  17    -1.2492631124063e-15
  18       0.1533186628526
  19     -0.57625585515413
  20    2.3241743182199e-15
  21    -0.00027169256106235
  22     -0.15788342880738
  23     -0.33063415591858
  24      0.28853258104193
  25    -0.042247791622053
  26    -1.5678888503657e-15
  27     -0.46912864345986
  28     0.099842925759132
  29    1.8056728510468e-15
  30      0.20332821444705
  31    -0.014749199837749
  32    0.00027169256102834
  33      0.15788342880021
  34      0.33063415592565
  35      0.28853258104259
  36    -0.042247791623155
  37     7.98894689115e-16
  38     -0.46912864346268
  39     0.099842925757585
  40    -2.2529435346733e-15
  41     -0.20332821444521
  42      0.01474919983626
  43     0.023727551593915
  44     -0.17448244846285
  45      0.28544839343951
  46    -0.062642307606365
  47      0.18795192208854
  48    -2.7128459420363e-16
  49      0.15331866285958
  50     -0.57625585514628
  51    2.4369030645421e-15
  52    -0.044128677679493
  53      0.43213951771014
  54     -0.39363012602388
  55     0.068376914790341
  56     0.060830159352399
  57    2.9138195514709e-15
  58      -0.2749744410149
  59       0.4162566892866
  60    -4.224424373754e-15
  61     -0.73592100441839
  62      0.57169948417417
 Sym= A
 Ene=     1.187418271
 Spin= Alpha
 Occup=   -0.00000
   1      0.39606716585346
   2      -1.1406011245277
   3      0.01151899513161
   4     -0.18385172572296
   5     0.090539288052059
   6      0.32862912864662
   7      0.59249645287356
   8    1.5712838814883e-15
   9     -0.61055914877212
  10      -1.0932052414647
  11    -2.2402506690766e-15
  12     0.018948726634824
  13    -0.029536152005279
  14     -0.29043984838621
  15          0.2532049794
  16    -0.035152971669594
  17    -9.2583372307132e-16
  18     -0.91851583051191
  19      0.30349827045384
  20    3.0294876936576e-15
  21    0.0017197362937202
  22     0.090121341468284
  23      0.31081987435953
  24      0.16154820064246
  25     -0.20188047686666
  26    2.0902292991709e-15
  27      -1.0263643091219
  28       1.4618504506262
  29    -3.6474860264512e-15
  30     0.041666547211799
  31      0.84807354739377
  32    0.0017197362937453
  33     0.090121341455665
  34      0.31081987445767
  35     -0.16154820063037
  36      0.20188047688723
  37    -1.5811107241234e-16
  38       1.0263643090862
  39      -1.4618504506956
  40    -7.8822096367378e-16
  41     0.041666547194391
  42      0.84807354744477
  43     0.018948726636125
  44    -0.029536152024332
  45     -0.29043984834618
  46     -0.25320497941775
  47     0.035152971671716
  48    -3.4967109187687e-15
  49      0.91851583058571
  50     -0.30349827045569
  51    6.2791804707303e-15
  52     0.011518995131559
  53     -0.18385172573005
  54     0.090539288026959
  55     -0.32862912865848
  56     -0.59249645290052
  57    1.6755849780153e-15
  58      0.61055914880286
  59        1.093205241531
  60    -4.0696259700717e-15
  61      0.39606716586417
  62      -1.1406011245755
 Sym= A
 Ene=     1.201717768
 Spin= Alpha
 Occup=    0.00000
   1      0.20710868797547
   2     -0.90966869280837
   3    -0.0011261609193336
   4     -0.14314572310218
   5     -0.32385773167945
   6      0.24830784022664
   7      0.52038321785118
   8    5.0520635970743e-16
   9     -0.56076012089666
  10      -1.2126108186577
  11    -9.8694716953931e-16
  12     0.025886687754425
  13     -0.34515674629488
  14      0.72843435386743
  15      0.31583261335227
  16    -0.049159261679567
  17    -9.1049389185604e-16
  18      -1.2030758290629
  19     0.092057573448006
  20    2.3464430749976e-15
  21    0.0013625880153914
  22     -0.22801519522643
  23        1.571488046967
  24     -0.21656134264701
  25     -0.33372262299866
  26    1.3986566123663e-15
  27      0.54470928940151
  28       1.0653399952414
  29    -3.2145051793672e-15
  30     -0.33398380214322
  31      0.85329097803552
  32    -0.0013625880153038
  33       0.2280151952341
  34      -1.5714880469546
  35     -0.21656134265707
  36     -0.33372262298804
  37    -1.2561255880456e-15
  38      0.54470928945735
  39       1.0653399951728
  40    2.1604055800343e-15
  41      0.33398380214306
  42     -0.85329097799314
  43     -0.02588668775326
  44      0.34515674629257
  45     -0.72843435388707
  46      0.31583261334144
  47    -0.049159261677391
  48    -1.1805113385035e-15
  49      -1.2030758290286
  50     0.092057573429069
  51    8.3162374061437e-16
  52    0.0011261609200321
  53      0.14314572308848
  54      0.32385773170018
  55      0.24830784020799
  56       0.5203832178197
  57    -7.3663315469359e-16
  58     -0.56076012086755
  59      -1.2126108186036
  60    4.6544449770528e-16
  61     -0.20710868795391
  62      0.90966869274641
 Sym= A
 Ene=     1.261022262
 Spin= Alpha
 Occup=   -0.00000
   1      0.23047258090857
   2      -0.3325353312564
   3     0.012880733336311
   4      0.12208506973024
   5      0.80649985717263
   6      0.16674611676331
   7    -0.017115178370235
   8    -2.31365814749e-15
   9    -0.072875039548111
  10      0.35880494409192
  11    2.7239710913171e-15
  12    0.0018976692365525
  13      0.32032160263727
  14     -0.30323545526853
  15     -0.24384394044617
  16     -0.18185048539599
  17    -8.2398652715326e-16
  18       1.3725514462753
  19      0.57503345003431
  20    -7.0011480713521e-16
  21    -0.0076440359932674
  22      0.90513764894159
  23      -4.9867739395316
  24      0.16671927001686
  25     0.043310009508556
  26    2.9643491362513e-16
  27       -2.233577776294
  28      -1.8327879218792
  29    7.7154795793471e-16
  30     -0.61570940694316
  31      0.26533286131557
  32    0.0076440359934144
  33      -0.9051376489518
  34       4.9867739395567
  35       0.1667192700203
  36     0.043310009504828
  37    2.317165459991e-15
  38      -2.2335777762918
  39      -1.8327879218983
  40    -3.0208614738716e-15
  41      0.61570940695365
  42     -0.26533286131909
  43    -0.0018976692365005
  44     -0.32032160263513
  45      0.30323545527336
  46     -0.24384394045489
  47     -0.18185048539378
  48    5.6920826932002e-16
  49       1.3725514463158
  50      0.57503345003207
  51    1.0309790586308e-16
  52    -0.012880733336926
  53     -0.12208506971505
  54     -0.80649985721742
  55       0.1667461167645
  56      -0.0171151783709
  57    -1.2994183653066e-16
  58    -0.072875039539585
  59      0.35880494410569
  60    1.7735116778284e-16
  61     -0.23047258091414
  62      0.33253533126432
 Sym= A
 Ene=     1.272505487
 Spin= Alpha
 Occup=    0.00000
   1      0.18141175491902
   2     -0.26375979902486
   3     0.025427583054271
   4      -0.7065609608392
   5       1.9327899291512
   6    -0.0078200094295756
   7    -0.059266345978039
   8    1.0594366252528e-15
   9      0.42650640761941
  10      0.60816789854154
  11    -1.0322512033457e-15
  12    -0.0059327206926708
  13     -0.21827275905077
  14      0.35573896068396
  15     -0.39808238732534
  16     0.092796273378767
  17    2.9536494488243e-15
  18       1.8856673901493
  19     -0.22250307340769
  20    -3.8980574264453e-15
  21    -0.0035329464400637
  22      0.51903400779381
  23      -1.3833335542143
  24     0.095892234491973
  25    -0.092834158318988
  26    -1.9683387169245e-15
  27      0.52632778877084
  28      -1.3799082146279
  29    3.5729447681906e-15
  30       -0.511272592406
  31    -0.030826975876136
  32    -0.0035329464398994
  33      0.51903400777441
  34      -1.3833335540994
  35    -0.095892234485919
  36     0.092834158322131
  37    -3.4264492973005e-16
  38     -0.52632778883058
  39       1.3799082145825
  40    1.1131396648081e-15
  41     -0.51127259239527
  42    -0.030826975875496
  43    -0.0059327206925159
  44      -0.2182727590623
  45      0.35573896069753
  46      0.39808238731884
  47    -0.092796273382002
  48    3.1670797098393e-15
  49       -1.885667390119
  50      0.22250307341885
  51    -5.3965136164734e-15
  52     0.025427583053863
  53     -0.70656096084488
  54       1.9327899291395
  55    0.0078200094325766
  56     0.059266345975007
  57    -6.5398978491482e-16
  58     -0.42650640762253
  59     -0.60816789852742
  60    2.577048823875e-15
  61      0.18141175491274
  62     -0.26375979902123
 Sym= A
 Ene=     1.403075643
 Spin= Alpha
 Occup=    0.00000
   1       0.2690147674937
   2      0.45794937284125
   3    -0.0018625593011071
   4      0.77025417876853
   5      -1.2067104813822
   6      0.14227493570437
   7     -0.15565550061795
   8    3.7309184591782e-16
   9     -0.39181443656078
  10      0.51717251699248
  11    -8.5604050380132e-16
  12    0.0034697172506163
  13      0.27000772954784
  14     -0.59472216948493
  15    -0.083893298523385
  16    -0.068507074781088
  17    -5.6453360072848e-16
  18      -0.1413779442713
  19     0.095989316142487
  20    1.3689231886643e-15
  21    -0.022314047094366
  22      -1.2294324739625
  23       3.7378904761308
  24     -0.18290808864813
  25     -0.12260469967085
  26    -4.1393727455408e-16
  27      0.60652546161822
  28      0.39399975917845
  29    -8.3131878876333e-16
  30     -0.22076349300967
  31     -0.38100325820876
  32     0.022314047097881
  33       1.2294324740016
  34      -3.7378904764926
  35     -0.18290808856361
  36     -0.12260469968215
  37    -1.0469234143827e-15
  38      0.60652546122088
  39      0.39399975910829
  40    1.7860264716369e-15
  41      0.22076349309447
  42      0.38100325828589
  43    -0.0034697172526196
  44     -0.27000772971862
  45      0.59472216992563
  46    -0.083893298579533
  47    -0.068507074836747
  48    -6.8916767705196e-18
  49     -0.14137794408349
  50     0.095989316351163
  51    -5.9993927422712e-16
  52    0.0018625592998047
  53     -0.77025417898419
  54       1.2067104814799
  55      0.14227493577294
  56     -0.15565550065462
  57    2.8930876707853e-17
  58     -0.39181443664606
  59      0.51717251717619
  60    1.8287005786189e-16
  61     -0.26901476758361
  62     -0.45794937289034
 Sym= A
 Ene=     1.404755009
 Spin= Alpha
 Occup=    0.00000
   1      -0.3111687716803
   2     -0.17225080671328
   3    -0.0042938192547157
   4     -0.75806343728899
   5      0.34841789448019
   6     -0.24109772455361
   7      0.12767275662886
   8    1.7875354163483e-15
   9      0.29934561339591
  10     -0.63645332323089
  11    -3.7231974529046e-15
  12    -0.0069287419706403
  13     -0.60559953577532
  14       1.5517706370816
  15      0.19123456956428
  16      0.19632977890658
  17    -1.9578813403911e-15
  18     -0.64296126232573
  19     -0.73686018782432
  20    4.3822016030674e-15
  21     0.012410979196192
  22      0.13960691428889
  23      -1.2825581901705
  24     -0.29404641892128
  25     0.037533227027003
  26    -1.2001888115824e-15
  27       1.3909772549157
  28      0.24942701324359
  29    -1.0124992345289e-16
  30      0.29859941563805
  31      0.27441521147923
  32     0.012410979189867
  33      0.13960691394037
  34      -1.2825581891176
  35      0.29404641897312
  36    -0.037533226992762
  37    8.275227174951e-16
  38      -1.3909772550835
  39     -0.24942701334993
  40    -6.4438235034559e-16
  41       0.2985994155746
  42      0.27441521136937
  43    -0.0069287419697001
  44      -0.6055995356971
  45       1.5517706369112
  46     -0.19123456953918
  47     -0.19632977888633
  48    9.3236076415728e-16
  49      0.64296126236099
  50      0.73686018779543
  51    -1.6297371130356e-15
  52    -0.0042938192552294
  53     -0.75806343706847
  54      0.34841789413799
  55      0.24109772451286
  56     -0.12767275658402
  57    -7.3724507883266e-16
  58     -0.29934561328444
  59      0.63645332308153
  60    1.4694909770208e-15
  61     -0.31116877160346
  62      -0.1722508065822
 Sym= A
 Ene=     1.460033786
 Spin= Alpha
 Occup=   -0.00000
   1       0.1426268124105
   2      0.12274618161912
   3    0.0098962233430072
   4     0.051505006780384
   5      0.21375091070898
   6    -0.033052417732505
   7    -0.059657453049953
   8    5.1227645425476e-16
   9     0.079158630502774
  10      0.41891425257649
  11    -4.7466708888491e-16
  12     0.013092855647129
  13     -0.25761088797925
  14      -1.0165490979793
  15     -0.42359454174084
  16     0.021818691045102
  17    1.6387075667862e-16
  18      0.52429737275788
  19    -0.0080334045341365
  20    -5.5793007440322e-16
  21    0.0093771154407018
  22    -0.091025372923241
  23     -0.35790552926405
  24      0.17679684558279
  25     -0.20762831472616
  26    -5.6328467343312e-16
  27      -1.1122682396438
  28       2.3562096189591
  29    4.0564821757501e-16
  30      0.79104885212755
  31      0.65033916099062
  32    0.0093771154407989
  33    -0.091025372925568
  34     -0.35790552926385
  35      -0.1767968455796
  36      0.20762831472657
  37    -4.9335913961393e-16
  38       1.1122682396264
  39      -2.3562096189554
  40    1.3773674823844e-16
  41      0.79104885212751
  42      0.65033916098977
  43     0.013092855647164
  44     -0.25761088798483
  45      -1.0165490979736
  46      0.42359454174377
  47    -0.021818691045212
  48    5.8788976026125e-17
  49     -0.52429737277671
  50    0.0080334045348678
  51    4.2277741641147e-16
  52    0.0098962233429776
  53     0.051505006773516
  54      0.21375091072974
  55     0.033052417733344
  56     0.059657453049719
  57    1.7154317282896e-15
  58    -0.079158630511228
  59     -0.41891425258032
  60    -2.0198162741473e-15
  61      0.14262681240929
  62      0.12274618161985
 Sym= A
 Ene=     1.554670255
 Spin= Alpha
 Occup=    0.00000
   1      -0.1223107888721
   2      0.18714802441632
   3    -0.0011214109870575
   4     -0.74763298102778
   5       2.8002729507597
   6     -0.09803092180985
   7    -0.058970914109972
   8    2.4068581907685e-16
   9       1.1686090950872
  10      0.71826597589876
  11    -7.0577841869368e-16
  12    0.0025753359766238
  13     -0.37449664123657
  14     -0.15607772362062
  15     -0.50026501918718
  16    -0.032323391945913
  17    2.9263784296384e-16
  18       2.5871923441896
  19      0.15393604034107
  20    1.1317094655728e-15
  21    -0.011962426058982
  22     -0.51422573284632
  23      0.95453252860321
  24     -0.41506359243818
  25    -0.095015936601724
  26    -6.0388977942935e-16
  27       2.1668977634423
  28       -0.355474031952
  29    6.1276003699527e-17
  30     -0.17913520758086
  31    -0.093391563163744
  32     0.011962426059017
  33      0.51422573284675
  34     -0.95453252860957
  35     -0.41506359243973
  36    -0.095015936600484
  37    -1.9446884628244e-16
  38       2.1668977634478
  39      -0.3554740319628
  40    -3.569154961027e-17
  41      0.17913520758533
  42      0.09339156316664
  43    -0.0025753359765683
  44      0.37449664123313
  45      0.15607772361749
  46     -0.50026501918243
  47    -0.032323391946164
  48    -3.4803719732703e-16
  49         2.58719234418
  50       0.1539360403422
  51    4.1901322709283e-16
  52    0.0011214109871918
  53      0.74763298102686
  54      -2.8002729507547
  55    -0.098030921809063
  56    -0.058970914108847
  57    -1.1344975594004e-16
  58       1.1686090950856
  59      0.71826597589385
  60    2.8302783279647e-16
  61      0.12231078887297
  62     -0.18714802441505
 Sym= A
 Ene=     1.811097779
 Spin= Alpha
 Occup=   -0.00000
   1      0.37220225444508
   2      0.36967484386276
   3      0.01479693401023
   4      0.72769570786036
   5      -3.3578636144655
   6    -0.046269401766994
   7    -0.035520228351007
   8    9.1060066893672e-16
   9      -1.3855497934995
  10     0.022777065776314
  11    -1.8081731938852e-15
  12    -0.035788379250601
  13      -1.3436666535529
  14       5.5296825989166
  15     0.065337798656858
  16      0.15593113061312
  17    -1.7454968880714e-15
  18     -0.33851901156468
  19       -1.797180389122
  20    3.2882014508759e-15
  21    0.0071527761952131
  22    -0.030900642181928
  23      -1.3967511155775
  24      0.17915436454085
  25      0.10636554329091
  26    6.5308773779154e-17
  27       1.6508169183951
  28      -2.1961729302235
  29    -1.3708398614551e-15
  30     -0.24955655338709
  31     -0.61747642340484
  32    0.0071527761961392
  33    -0.030900642171529
  34      -1.3967511156927
  35     -0.17915436454563
  36     -0.10636554329391
  37    9.8587154105208e-16
  38      -1.6508169183799
  39       2.1961729302629
  40    -8.0689475781241e-16
  41     -0.24955655338383
  42     -0.61747642341188
  43    -0.035788379251202
  44      -1.3436666535823
  45        5.529682599016
  46     -0.06533779865211
  47     -0.15593113061572
  48    -1.6587472448822e-16
  49      0.33851901154589
  50       1.7971803891512
  51    6.256395012993e-16
  52     0.014796934010618
  53       0.7276957078743
  54      -3.3578636145152
  55     0.046269401767393
  56     0.035520228351833
  57    -5.4376013135572e-17
  58       1.3855497935231
  59    -0.022777065784428
  60    -3.2951486439597e-16
  61      0.37220225445325
  62      0.36967484386922
 Sym= A
 Ene=     1.843683484
 Spin= Alpha
 Occup=   -0.00000
   1     -0.36358790961551
   2     -0.30283776601947
   3    -0.016953298925747
   4     -0.66020908697698
   5       2.3987492757296
   6     0.010680208623568
   7     0.031874935309888
   8    -3.0391239966941e-16
   9       1.1074280940986
  10     -0.31488949310781
  11    2.1281273824435e-16
  12     0.026002406685832
  13       1.3277073913072
  14      -4.4622759064165
  15      0.17742961282287
  16     -0.12540270284286
  17    1.2740416372629e-16
  18     -0.65342711631096
  19       1.3350835284818
  20    1.4153670811123e-16
  21    -0.038363917335057
  22     -0.38686205450542
  23       4.6825628678309
  24     -0.20422827902051
  25     -0.11420349038866
  26    -8.6131381528879e-17
  27      0.55217121198751
  28       1.5790684984305
  29    -3.0230297463193e-16
  30     -0.15313232299917
  31      0.29053332657335
  32     0.038363917334922
  33      0.38686205450594
  34      -4.6825628677988
  35     -0.20422827901646
  36     -0.11420349038665
  37    1.0718799869913e-15
  38      0.55217121202319
  39       1.5790684983843
  40    -7.4259930970726e-16
  41      0.15313232300416
  42     -0.29053332656073
  43    -0.026002406685057
  44      -1.3277073912767
  45       4.4622759062944
  46      0.17742961282375
  47     -0.12540270283925
  48    -4.1048147467874e-16
  49     -0.65342711631739
  50       1.3350835284419
  51    4.5940179213241e-16
  52      0.01695329892541
  53      0.66020908696083
  54      -2.3987492756556
  55     0.010680208622529
  56     0.031874935308923
  57    1.301935404717e-16
  58       1.1074280940682
  59     -0.31488949310681
  60    -1.65137505982e-16
  61      0.36358790960739
  62      0.30283776601105
