[Molden Format]
made by pyscf v[2.9.0]
[Atoms] (AU)
H   1   1     0.00000000000000     0.00000000000000     0.00000000000000
H   2   1     1.88972612456506     0.00000000000000     0.00000000000000
H   3   1     0.37794522491301     3.02356179930410     0.18897261245651
H   4   1     2.19050627290758     2.45664396193458    -0.18897261245651
[GTO]
1 0
 s    3 1.00
            3.42525091    0.15432897070298
            0.62391373    0.53532814243847
             0.1688554    0.44463454202535

2 0
 s    3 1.00
            3.42525091    0.15432897070298
            0.62391373    0.53532814243847
             0.1688554    0.44463454202535

3 0
 s    3 1.00
            3.42525091    0.15432897070298
            0.62391373    0.53532814243847
             0.1688554    0.44463454202535

4 0
 s    3 1.00
            3.42525091    0.15432897070298
            0.62391373    0.53532814243847
             0.1688554    0.44463454202535

[5d]
[7f]
[9g]

[MO]
 Sym= A
 Ene=               0
 Spin= Alpha
 Occup=    1.93680
   1     -0.59607870647791
   2     -0.59692250385793
   3      0.11662059835969
   4      0.05719337717253
 Sym= A
 Ene=               0
 Spin= Alpha
 Occup=    1.93046
   1      0.12139941602649
   2     0.072502343980318
   3     -0.60356012033612
   4     -0.59952777741117
 Sym= A
 Ene=               0
 Spin= Alpha
 Occup=    0.06954
   1     0.023953468908135
   2      -0.1560815085807
   3     -0.97933937096537
   4       1.0189812044643
 Sym= A
 Ene=               0
 Spin= Alpha
 Occup=    0.06320
   1     -0.99780935572698
   2       1.0331142749553
   3     0.061837179460568
   4     -0.17159187690533
